<?xml version="1.0" ?>
<VTKFile byte_order="LittleEndian" type="UnstructuredGrid" version="0.1">
<UnstructuredGrid>
<Piece NumberOfCells="841" NumberOfPoints="900">
<Points>
<DataArray NumberOfComponents="3" format="ascii" type="Float32">10.0 0.0 0.0 9.987872878365437 0.4923366385026801 0.0 9.950578694597542 0.9929670904020319 0.0 9.886836388476402 1.5001554011164597 0.0 9.795506604306603 2.011976730726704 0.0 9.675621935166237 2.5263293862301364 0.0 9.526416408294516 3.0409522218833054 0.0 9.34735315421337 3.5534474824341142 0.0 9.13814914227909 4.061308933516867 0.0 8.898795860939817 4.561954868838615 0.0 8.629574880815328 5.0527653197433455 0.0 8.331067367291825 5.531122537211165 0.0 8.004156805612288 5.9944535890413295 0.0 7.650024458222793 6.440273735532756 0.0 7.2701373779805465 6.866229132885833 0.0 6.86622913288583 7.270137377980549 0.0 6.440273735532754 7.650024458222797 0.0 5.994453589041329 8.004156805612288 0.0 5.531122537211164 8.331067367291826 0.0 5.0527653197433455 8.629574880815332 0.0 4.561954868838614 8.898795860939819 0.0 4.061308933516866 9.138149142279092 0.0 3.5534474824341147 9.347353154213371 0.0 3.040952221883305 9.526416408294516 0.0 2.5263293862301355 9.675621935166237 0.0 2.0119767307267034 9.795506604306603 0.0 1.5001554011164588 9.886836388476402 0.0 0.992967090402032 9.95057869459754 0.0 0.492336638502681 9.987872878365437 0.0 0.0 10.0 0.0 9.827586206896552 0.0 0.0 9.815668173566031 0.48384807576987543 0.0 9.77901699296655 0.9758469681537212 0.0 9.716373692123364 1.4742906528213489 0.0 9.626618559404768 1.9772874767486577 0.0 9.508800867318547 2.4827719830192727 0.0 9.36216784953082 2.9885220111611814 0.0 9.18619189293383 3.492181146530079 0.0 8.980594846722559 3.991286365697611 0.0 8.745368346096033 4.4833004745482965 0.0 8.480789107008173 4.965648676299497 0.0 8.18742827475231 5.435758355535112 0.0 7.8661541020672505 5.891100940954413 0.0 7.518127484805163 6.3292345331959865 0.0 7.144790181808471 6.74784587197401 0.0 6.747845871974008 7.144790181808471 0.0 6.329234533195985 7.518127484805163 0.0 5.891100940954412 7.8661541020672505 0.0 5.4357583555351106 8.187428274752312 0.0 4.965648676299495 8.480789107008173 0.0 4.483300474548294 8.74536834609603 0.0 3.9912863656976096 8.980594846722557 0.0 3.4921811465300787 9.186191892933833 0.0 2.9885220111611783 9.362167849530818 0.0 2.482771983019271 9.508800867318545 0.0 1.9772874767486575 9.626618559404768 0.0 1.474290652821348 9.71637369212336 0.0 0.9758469681537214 9.77901699296655 0.0 0.48384807576987615 9.81566817356603 0.0 0.0 9.827586206896553 0.0 9.655172413793103 0.0 0.0 9.643463468766628 0.4753595130370705 0.0 9.60745529133556 0.9587268459054104 0.0 9.545910995770324 1.4484259045262378 0.0 9.45773051450293 1.9425982227706111 0.0 9.341979799470852 2.439214579808408 0.0 9.197919290767123 2.9360918004390553 0.0 9.02503063165429 3.4309148106260423 0.0 8.823040551166022 3.921263797878355 0.0 8.591940831252243 4.404646080257974 0.0 8.332003333201012 4.878532032855646 0.0 8.043789182212798 5.340394173859059 0.0 7.728151398522213 5.787748292867494 0.0 7.386230511387529 6.218195330859215 0.0 7.019442985636391 6.629462611062184 0.0 6.629462611062183 7.019442985636393 0.0 6.218195330859213 7.386230511387527 0.0 5.787748292867493 7.728151398522211 0.0 5.340394173859057 8.043789182212798 0.0 4.878532032855644 8.33200333320101 0.0 4.404646080257973 8.59194083125224 0.0 3.921263797878353 8.82304055116602 0.0 3.4309148106260414 9.02503063165429 0.0 2.936091800439054 9.197919290767121 0.0 2.4392145798084073 9.341979799470852 0.0 1.942598222770611 9.457730514502927 0.0 1.448425904526237 9.54591099577032 0.0 0.9587268459054107 9.607455291335558 0.0 0.4753595130370714 9.64346346876663 0.0 0.0 9.655172413793103 0.0 9.482758620689655 0.0 0.0 9.471258763967224 0.46687095030426573 0.0 9.435893589704566 0.9416067236570993 0.0 9.375448299417279 1.422561156231126 0.0 9.288842469601093 1.9079089687925643 0.0 9.17515873162316 2.3956571765975436 0.0 9.033670732003422 2.8836615897169287 0.0 8.86386937037475 3.369648474722006 0.0 8.665486255609487 3.8512412300590992 0.0 8.438513316408452 4.3259916859676535 0.0 8.18321755939385 4.791415389411795 0.0 7.900150089673283 5.245029992183005 0.0 7.590148694977172 5.684395644780574 0.0 7.254333537969893 6.107156128522443 0.0 6.894095789464314 6.511079350150361 0.0 6.511079350150359 6.8940957894643144 0.0 6.107156128522441 7.254333537969893 0.0 5.684395644780572 7.590148694977171 0.0 5.245029992183001 7.900150089673283 0.0 4.791415389411795 8.183217559393851 0.0 4.325991685967652 8.43851331640845 0.0 3.8512412300590984 8.665486255609485 0.0 3.3696484747220063 8.86386937037475 0.0 2.8836615897169278 9.03367073200342 0.0 2.395657176597543 9.175158731623158 0.0 1.907908968792564 9.28884246960109 0.0 1.4225611562311251 9.375448299417277 0.0 0.9416067236570995 9.435893589704566 0.0 0.46687095030426656 9.471258763967224 0.0 0.0 9.482758620689655 0.0 9.310344827586208 0.0 0.0 9.29905405916782 0.458382387571461 0.0 9.264331888073574 0.9244866014087886 0.0 9.204985603064237 1.3966964079360142 0.0 9.119954424699253 1.8732197148145178 0.0 9.008337663775466 2.352099773386679 0.0 8.869422173239727 2.8312313789948034 0.0 8.702708109095212 3.3083821388179695 0.0 8.50793196005295 3.7812186622398434 0.0 8.285085801564662 4.247337291677333 0.0 8.034431785586689 4.704298745967943 0.0 7.756510997133768 5.1496658105069475 0.0 7.452145991432134 5.581042996693654 0.0 7.1224365645522605 5.996116926185671 0.0 6.768748593292235 6.392696089238534 0.0 6.392696089238532 6.768748593292235 0.0 5.996116926185669 7.122436564552259 0.0 5.581042996693654 7.452145991432133 0.0 5.1496658105069475 7.756510997133768 0.0 4.704298745967942 8.034431785586687 0.0 4.247337291677331 8.28508580156466 0.0 3.7812186622398425 8.50793196005295 0.0 3.3083821388179695 8.702708109095209 0.0 2.8312313789948016 8.869422173239723 0.0 2.352099773386678 9.008337663775464 0.0 1.8732197148145178 9.119954424699252 0.0 1.396696407936014 9.204985603064237 0.0 0.9244866014087888 9.264331888073574 0.0 0.4583823875714617 9.299054059167819 0.0 0.0 9.310344827586208 0.0 9.13793103448276 0.0 0.0 9.126849354368417 0.44989382483865614 0.0 9.09277018644258 0.9073664791604775 0.0 9.034522906711196 1.3708316596409031 0.0 8.951066379797417 1.8385304608364712 0.0 8.841516595927772 2.3085423701758145 0.0 8.705173614476026 2.778801168272677 0.0 8.54154684781567 3.2471158029139335 0.0 8.350377664496413 3.7111960944205866 0.0 8.13165828672087 4.1686828973870105 0.0 7.885646011779528 4.617182102524091 0.0 7.612871904594256 5.054301628830894 0.0 7.314143287887095 5.477690348606734 0.0 6.990539591134624 5.885077723848897 0.0 6.643401397120157 6.27431282832671 0.0 6.274312828326709 6.643401397120156 0.0 5.885077723848897 6.990539591134624 0.0 5.477690348606734 7.3141432878870924 0.0 5.054301628830893 7.612871904594254 0.0 4.617182102524092 7.885646011779527 0.0 4.16868289738701 8.13165828672087 0.0 3.7111960944205853 8.350377664496412 0.0 3.2471158029139326 8.541546847815667 0.0 2.7788011682726763 8.705173614476026 0.0 2.3085423701758137 8.841516595927768 0.0 1.838530460836471 8.951066379797412 0.0 1.3708316596409023 9.034522906711192 0.0 0.9073664791604777 9.09277018644258 0.0 0.4498938248386568 9.126849354368415 0.0 0.0 9.137931034482758 0.0 8.96551724137931 0.0 0.0 8.954644649569014 0.4414052621058512 0.0 8.921208484811592 0.8902463569121667 0.0 8.864060210358154 1.3449669113457918 0.0 8.782178334895578 1.8038412068584242 0.0 8.674695528080079 2.26498496696495 0.0 8.540925055712327 2.72637095755055 0.0 8.380385586536129 3.1858494670098962 0.0 8.192823368939878 3.6411735266013285 0.0 7.978230771877082 4.09002850309669 0.0 7.736860237972367 4.530065459080241 0.0 7.4692328120547415 4.958937447154839 0.0 7.176140584342056 5.374337700519815 0.0 6.858642617716992 5.774038521512127 0.0 6.518054200948079 6.1559295674148835 0.0 6.155929567414885 6.518054200948078 0.0 5.774038521512125 6.858642617716988 0.0 5.374337700519815 7.176140584342053 0.0 4.958937447154839 7.46923281205474 0.0 4.530065459080241 7.736860237972365 0.0 4.090028503096688 7.978230771877078 0.0 3.641173526601328 8.192823368939875 0.0 3.1858494670098967 8.380385586536127 0.0 2.7263709575505497 8.540925055712325 0.0 2.264984966964949 8.674695528080075 0.0 1.8038412068584244 8.782178334895574 0.0 1.344966911345791 8.86406021035815 0.0 0.8902463569121669 8.921208484811588 0.0 0.44140526210585196 8.95464464956901 0.0 0.0 8.965517241379311 0.0 8.793103448275863 0.0 0.0 8.782439944769608 0.4329166993730463 0.0 8.7496467831806 0.8731262346638559 0.0 8.693597514005113 1.31910216305068 0.0 8.613290289993738 1.7691519528803776 0.0 8.507874460232385 2.2214275637540855 0.0 8.37667649694863 2.673940746828424 0.0 8.219224325256587 3.124583131105859 0.0 8.035269073383342 3.571150958782072 0.0 7.8248032570332935 4.011374108806369 0.0 7.588074464165207 4.442948815636391 0.0 7.325593719515228 4.863573265478784 0.0 7.038137880797016 5.270985052432895 0.0 6.726745644299358 5.662999319175355 0.0 6.392707004776001 6.037546306503059 0.0 6.037546306503062 6.392707004776 0.0 5.662999319175354 6.726745644299355 0.0 5.270985052432895 7.038137880797013 0.0 4.863573265478783 7.325593719515226 0.0 4.442948815636391 7.588074464165205 0.0 4.011374108806368 7.82480325703329 0.0 3.5711509587820722 8.035269073383338 0.0 3.12458313110586 8.219224325256583 0.0 2.6739407468284235 8.376676496948626 0.0 2.221427563754085 8.507874460232381 0.0 1.7691519528803776 8.613290289993737 0.0 1.3191021630506796 8.693597514005111 0.0 0.8731262346638559 8.749646783180594 0.0 0.43291669937304716 8.782439944769607 0.0 0.0 8.793103448275861 0.0 8.620689655172415 0.0 0.0 8.610235239970205 0.4244281366402415 0.0 8.578085081549606 0.8560061124155448 0.0 8.523134817652073 1.293237414755569 0.0 8.444402245091903 1.7344626989023308 0.0 8.34105339238469 2.1778701605432214 0.0 8.21242793818493 2.6215105361062987 0.0 8.058063063977047 3.063316795201823 0.0 7.8777147778268075 3.5011283909628164 0.0 7.671375742189504 3.9327197145160486 0.0 7.4392886903580475 4.355832172192541 0.0 7.181954626975713 4.76820908380273 0.0 6.9001351772519754 5.167632404345975 0.0 6.594848670881722 5.5519601168385835 0.0 6.267359808603922 5.919163045591237 0.0 5.919163045591236 6.2673598086039215 0.0 5.5519601168385835 6.5948486708817216 0.0 5.167632404345973 6.900135177251972 0.0 4.768209083802728 7.18195462697571 0.0 4.355832172192539 7.439288690358043 0.0 3.9327197145160477 7.671375742189501 0.0 3.5011283909628155 7.877714777826804 0.0 3.063316795201823 8.058063063977043 0.0 2.621510536106298 8.212427938184927 0.0 2.177870160543221 8.341053392384687 0.0 1.7344626989023308 8.444402245091899 0.0 1.293237414755568 8.52313481765207 0.0 0.8560061124155451 8.578085081549604 0.0 0.4244281366402423 8.610235239970203 0.0 0.0 8.620689655172415 0.0 8.448275862068966 0.0 0.0 8.438030535170798 0.41593957390743663 0.0 8.406523379918612 0.8388859901672339 0.0 8.352672121299033 1.2673726664604577 0.0 8.275514200190065 1.6997734449242847 0.0 8.174232324536998 2.134312757332357 0.0 8.048179379421233 2.569080325384173 0.0 7.8969018026975055 3.002050459297787 0.0 7.720160482270268 3.4311058231435596 0.0 7.5179482273457126 3.854065320225727 0.0 7.290502916550885 4.268715528748689 0.0 7.038315534436198 4.672844902126674 0.0 6.762132473706935 5.0642797562590545 0.0 6.462951697464087 5.440920914501811 0.0 6.142012612431844 5.800779784679412 0.0 5.800779784679412 6.142012612431843 0.0 5.4409209145018105 6.462951697464087 0.0 5.0642797562590545 6.762132473706934 0.0 4.672844902126675 7.038315534436197 0.0 4.268715528748688 7.2905029165508815 0.0 3.8540653202257253 7.51794822734571 0.0 3.431105823143559 7.720160482270267 0.0 3.002050459297787 7.896901802697504 0.0 2.5690803253841716 8.048179379421228 0.0 2.134312757332356 8.174232324536993 0.0 1.6997734449242843 8.27551420019006 0.0 1.2673726664604568 8.35267212129903 0.0 0.8388859901672341 8.406523379918612 0.0 0.41593957390743747 8.4380305351708 0.0 0.0 8.448275862068966 0.0 8.275862068965518 0.0 0.0 8.265825830371394 0.4074510111746319 0.0 8.23496167828762 0.8217658679189233 0.0 8.18220942494599 1.2415079181653463 0.0 8.106626155288225 1.6650841909462377 0.0 8.007411256689302 2.090755354121493 0.0 7.8839308206575325 2.516650114662047 0.0 7.735740541417964 2.94078412339375 0.0 7.562606186713734 3.361083255324304 0.0 7.364520712501921 3.775410925935406 0.0 7.141717142743724 4.1815988853048385 0.0 6.894676441896685 4.57748072045062 0.0 6.624129770161895 4.960927108172136 0.0 6.331054724046455 5.329881712165041 0.0 6.016665416259765 5.682396523767586 0.0 5.682396523767587 6.016665416259765 0.0 5.32988171216504 6.331054724046452 0.0 4.960927108172136 6.624129770161894 0.0 4.577480720450619 6.8946764418966815 0.0 4.1815988853048385 7.1417171427437225 0.0 3.775410925935405 7.36452071250192 0.0 3.361083255324302 7.5626061867137295 0.0 2.9407841233937497 7.735740541417962 0.0 2.5166501146620455 7.88393082065753 0.0 2.090755354121492 8.007411256689299 0.0 1.6650841909462377 8.106626155288222 0.0 1.2415079181653454 8.182209424945988 0.0 0.821765867918923 8.23496167828762 0.0 0.40745101117463267 8.265825830371396 0.0 0.0 8.275862068965516 0.0 8.10344827586207 0.0 0.0 8.09362112557199 0.39896244844182716 0.0 8.06339997665663 0.8046457456706124 0.0 8.01174672859295 1.2156431698702352 0.0 7.9377381103863875 1.6303949369681914 0.0 7.840590188841608 2.047197950910628 0.0 7.719682261893833 2.4642199039399215 0.0 7.5745792801384235 2.879517787489714 0.0 7.405051891157198 3.2910606875050488 0.0 7.211093197658131 3.696756531645086 0.0 6.992931368936563 4.094482241860987 0.0 6.751037349357169 4.482116538774566 0.0 6.486127066616858 4.8575744600852175 0.0 6.199157750628818 5.218842509828268 0.0 5.891318220087686 5.564013262855761 0.0 5.564013262855761 5.891318220087687 0.0 5.218842509828269 6.199157750628819 0.0 4.8575744600852175 6.486127066616856 0.0 4.482116538774566 6.751037349357168 0.0 4.0944822418609865 6.99293136893656 0.0 3.6967565316450837 7.211093197658128 0.0 3.2910606875050465 7.4050518911571945 0.0 2.8795177874897138 7.574579280138421 0.0 2.4642199039399193 7.7196822618938326 0.0 2.0471979509106273 7.840590188841606 0.0 1.630394936968191 7.937738110386386 0.0 1.2156431698702341 8.011746728592946 0.0 0.8046457456706122 8.063399976656628 0.0 0.3989624484418277 8.093621125571993 0.0 0.0 8.10344827586207 0.0 7.931034482758621 0.0 0.0 7.921416420772587 0.3904738857090223 0.0 7.891838275025636 0.7875256234223014 0.0 7.841284032239907 1.1897784215751237 0.0 7.768850065484549 1.5957056829901446 0.0 7.6737691209939145 2.003640547699764 0.0 7.555433703130135 2.411789693217795 0.0 7.413418018858883 2.8182514515856782 0.0 7.247497595600661 3.221038119685792 0.0 7.057665682814342 3.6181021373547653 0.0 6.844145595129403 4.007365598417137 0.0 6.607398256817655 4.386752357098511 0.0 6.3481243630718165 4.754221811998297 0.0 6.067260777211185 5.107803307491498 0.0 5.765971023915609 5.445630001943938 0.0 5.445630001943938 5.7659710239156095 0.0 5.107803307491498 6.067260777211185 0.0 4.754221811998297 6.348124363071816 0.0 4.38675235709851 6.607398256817654 0.0 4.007365598417136 6.844145595129401 0.0 3.6181021373547626 7.057665682814339 0.0 3.2210381196857902 7.247497595600658 0.0 2.818251451585677 7.41341801885888 0.0 2.4117896932177936 7.555433703130134 0.0 2.0036405476997627 7.673769120993913 0.0 1.5957056829901446 7.768850065484546 0.0 1.1897784215751228 7.841284032239905 0.0 0.7875256234223014 7.891838275025636 0.0 0.39047388570902297 7.921416420772587 0.0 0.0 7.931034482758621 0.0 7.758620689655173 0.0 0.0 7.749211715973184 0.38198532297621735 0.0 7.720276573394647 0.7704055011739904 0.0 7.670821335886865 1.1639136732800122 0.0 7.599962020582711 1.561016429012098 0.0 7.506948053146221 1.9600831444888995 0.0 7.391185144366438 2.359359482495669 0.0 7.252256757579342 2.7569851156816414 0.0 7.089943300044126 3.1510155518665353 0.0 6.9042381679705525 3.5394477430644438 0.0 6.695359821322244 3.920248954973286 0.0 6.463759164278141 4.2913881754224565 0.0 6.210121659526778 4.650869163911377 0.0 5.9353638037935506 4.996764105154725 0.0 5.64062382774353 5.327246741032112 0.0 5.3272467410321145 5.64062382774353 0.0 4.996764105154725 5.935363803793549 0.0 4.650869163911378 6.210121659526775 0.0 4.291388175422455 6.463759164278139 0.0 3.9202489549732853 6.6953598213222385 0.0 3.539447743064442 6.904238167970549 0.0 3.1510155518665335 7.089943300044122 0.0 2.7569851156816405 7.252256757579339 0.0 2.359359482495668 7.391185144366435 0.0 1.9600831444888982 7.506948053146219 0.0 1.5610164290120974 7.599962020582709 0.0 1.1639136732800113 7.670821335886863 0.0 0.7704055011739903 7.720276573394644 0.0 0.381985322976218 7.749211715973184 0.0 0.0 7.7586206896551735 0.0 7.586206896551724 0.0 0.0 7.57700701117378 0.3734967602434125 0.0 7.548714871763654 0.7532853789256795 0.0 7.5003586395338235 1.1380489249849006 0.0 7.431073975680873 1.5263271750340512 0.0 7.340126985298528 1.916525741278035 0.0 7.226936585602738 2.3069292717735426 0.0 7.091095496299801 2.6957187797776045 0.0 6.9323890044875895 3.0809929840472785 0.0 6.75081065312676 3.4607933487741214 0.0 6.546574047515083 3.833132311529436 0.0 6.3201200717386286 4.196023993746402 0.0 6.072118955981738 4.547516515824457 0.0 5.803466830375915 4.885724902817952 0.0 5.515276631571451 5.208863480120286 0.0 5.2088634801202875 5.51527663157145 0.0 4.8857249028179535 5.803466830375914 0.0 4.547516515824459 6.072118955981736 0.0 4.196023993746402 6.320120071738625 0.0 3.8331323115294347 6.546574047515077 0.0 3.4607933487741205 6.750810653126758 0.0 3.080992984047277 6.932389004487585 0.0 2.6957187797776045 7.091095496299799 0.0 2.3069292717735417 7.226936585602737 0.0 1.9165257412780337 7.340126985298525 0.0 1.526327175034051 7.431073975680871 0.0 1.1380489249849 7.5003586395338235 0.0 0.7532853789256795 7.548714871763652 0.0 0.37349676024341316 7.577007011173779 0.0 0.0 7.586206896551724 0.0 7.413793103448276 0.0 0.0 7.404802306374376 0.36500819751060765 0.0 7.377153170132661 0.7361652566773685 0.0 7.329895943180781 1.112184176689789 0.0 7.262185930779036 1.4916379210560045 0.0 7.173305917450833 1.8729683380671704 0.0 7.062688026839039 2.2544990610514173 0.0 6.929934235020259 2.6344524438735677 0.0 6.774834708931052 3.0109704162280213 0.0 6.59738313828297 3.3821389544838003 0.0 6.397788273707919 3.746015668085583 0.0 6.176480979199114 4.100659812070347 0.0 5.934116252436699 4.444163867737538 0.0 5.67156985695828 4.77468570048118 0.0 5.389929435399372 5.090480219208461 0.0 5.090480219208462 5.389929435399371 0.0 4.7746857004811805 5.6715698569582775 0.0 4.444163867737538 5.934116252436695 0.0 4.100659812070346 6.17648097919911 0.0 3.746015668085584 6.397788273707918 0.0 3.3821389544838 6.597383138282969 0.0 3.0109704162280218 6.774834708931051 0.0 2.6344524438735677 6.929934235020257 0.0 2.254499061051416 7.062688026839039 0.0 1.8729683380671696 7.173305917450831 0.0 1.4916379210560045 7.262185930779033 0.0 1.1121841766897886 7.329895943180781 0.0 0.7361652566773687 7.377153170132658 0.0 0.3650081975106084 7.404802306374376 0.0 0.0 7.413793103448275 0.0 7.241379310344828 0.0 0.0 7.232597601574971 0.3565196347778028 0.0 7.2055914685016695 0.7190451344290577 0.0 7.15943324682774 1.086319428394678 0.0 7.093297885877197 1.4569486670779581 0.0 7.006484849603138 1.829410934856306 0.0 6.898439468075341 2.202068850329291 0.0 6.768772973740718 2.5731861079695317 0.0 6.617280413374516 2.940947848408766 0.0 6.44395562343918 3.3034845601934797 0.0 6.249002499900758 3.658899024641733 0.0 6.032841886659598 4.005295630394292 0.0 5.7961135488916575 4.340811219650618 0.0 5.539672883540645 4.663646498144408 0.0 5.264582239227293 4.972096958296636 0.0 4.972096958296636 5.264582239227293 0.0 4.6636464981444075 5.539672883540645 0.0 4.340811219650619 5.7961135488916575 0.0 4.005295630394292 6.032841886659597 0.0 3.6588990246417326 6.249002499900757 0.0 3.3034845601934784 6.44395562343918 0.0 2.940947848408764 6.617280413374514 0.0 2.573186107969531 6.7687729737407185 0.0 2.20206885032929 6.89843946807534 0.0 1.8294109348563055 7.006484849603139 0.0 1.456948667077958 7.0932978858771945 0.0 1.086319428394677 7.159433246827739 0.0 0.7190451344290578 7.205591468501667 0.0 0.3565196347778035 7.2325976015749704 0.0 0.0 7.241379310344828 0.0 7.06896551724138 0.0 0.0 7.060392896775567 0.34803107204499806 0.0 7.0340297668706775 0.7019250121807469 0.0 6.9889705504747 1.0604546800995667 0.0 6.924409840975359 1.4222594130999118 0.0 6.839663781755446 1.7858535316454418 0.0 6.734190909311643 2.149638639607165 0.0 6.607611712461176 2.511919772065495 0.0 6.45972611781798 2.8709252805895096 0.0 6.2905281085953915 3.22483016590316 0.0 6.100216726093599 3.5717823811978837 0.0 5.889202794120084 3.909931448718239 0.0 5.658110845346618 4.2374585715637 0.0 5.407775910123011 4.552607295807638 0.0 5.139235043055215 4.853713697384813 0.0 4.853713697384812 5.1392350430552165 0.0 4.552607295807637 5.4077759101230125 0.0 4.237458571563698 5.658110845346619 0.0 3.909931448718237 5.889202794120084 0.0 3.571782381197881 6.100216726093597 0.0 3.2248301659031577 6.290528108595391 0.0 2.870925280589508 6.459726117817978 0.0 2.5119197720654944 6.607611712461178 0.0 2.149638639607163 6.734190909311641 0.0 1.7858535316454405 6.839663781755445 0.0 1.4222594130999109 6.924409840975356 0.0 1.060454680099566 6.988970550474699 0.0 0.7019250121807469 7.034029766870676 0.0 0.3480310720449987 7.060392896775566 0.0 0.0 7.06896551724138 0.0 6.8965517241379315 0.0 0.0 6.888188191976164 0.3395425093121933 0.0 6.862468065239687 0.684804889932436 0.0 6.818507854121659 1.0345899318044551 0.0 6.755521796073521 1.3875701591218648 0.0 6.672842713907753 1.7422961284345775 0.0 6.569942350547944 2.0972084288850397 0.0 6.446450451181637 2.4506534361614594 0.0 6.302171822261444 2.8009027127702533 0.0 6.1371005937516 3.146175771612838 0.0 5.951430952286437 3.4846657377540327 0.0 5.74556370158057 3.8145672670421837 0.0 5.520108141801579 4.134105923476779 0.0 5.275878936705377 4.441568093470867 0.0 5.013887846883137 4.735330436472989 0.0 4.735330436472988 5.013887846883137 0.0 4.441568093470866 5.275878936705377 0.0 4.1341059234767785 5.520108141801579 0.0 3.8145672670421815 5.7455637015805685 0.0 3.48466573775403 5.951430952286435 0.0 3.1461757716128367 6.137100593751599 0.0 2.800902712770252 6.302171822261443 0.0 2.4506534361614585 6.446450451181637 0.0 2.0972084288850374 6.569942350547943 0.0 1.742296128434576 6.672842713907752 0.0 1.3875701591218648 6.755521796073522 0.0 1.0345899318044545 6.818507854121657 0.0 0.684804889932436 6.862468065239685 0.0 0.3395425093121939 6.888188191976164 0.0 0.0 6.8965517241379315 0.0 6.724137931034484 0.0 0.0 6.71598348717676 0.33105394657938847 0.0 6.690906363608694 0.6676847676841251 0.0 6.648045157768619 1.008725183509344 0.0 6.586633751171684 1.352880905143818 0.0 6.506021646060059 1.6987387252237127 0.0 6.405693791784246 2.044778218162913 0.0 6.2852891899020955 2.3893871002574225 0.0 6.144617526704908 2.7308801449509974 0.0 5.983673078907811 3.067521377322518 0.0 5.802645178479276 3.3975490943101807 0.0 5.601924609041055 3.7192030853661286 0.0 5.38210543825654 4.030753275389859 0.0 5.143981963287744 4.330528891134096 0.0 4.888540650711059 4.616947175561163 0.0 4.6169471755611635 4.888540650711057 0.0 4.330528891134094 5.143981963287741 0.0 4.03075327538986 5.382105438256538 0.0 3.7192030853661278 5.601924609041054 0.0 3.3975490943101807 5.802645178479274 0.0 3.0675213773225165 5.9836730789078105 0.0 2.730880144950997 6.1446175267049075 0.0 2.389387100257422 6.285289189902094 0.0 2.0447782181629117 6.405693791784245 0.0 1.6987387252237118 6.5060216460600575 0.0 1.352880905143818 6.586633751171682 0.0 1.0087251835093431 6.648045157768616 0.0 0.667684767684125 6.690906363608692 0.0 0.331053946579389 6.715983487176761 0.0 0.0 6.724137931034484 0.0 6.551724137931036 0.0 0.0 6.543778782377356 0.3225653838465836 0.0 6.519344661977702 0.6505646454358142 0.0 6.477582461415577 0.9828604352142324 0.0 6.417745706269846 1.3181916511657712 0.0 6.339200578212367 1.6551813220128482 0.0 6.2414452330205465 1.9923480074407869 0.0 6.124127928622556 2.3281207643533857 0.0 5.987063231148374 2.6608575771317406 0.0 5.830245564064022 2.9888669830321963 0.0 5.653859404672115 3.31043245086633 0.0 5.458285516501543 3.623838903690074 0.0 5.244102734711502 3.9274006273029403 0.0 5.012084989870108 4.219489688797322 0.0 4.763193454538982 4.498563914649338 0.0 4.498563914649339 4.76319345453898 0.0 4.219489688797323 5.012084989870107 0.0 3.9274006273029407 5.2441027347114995 0.0 3.6238389036900736 5.458285516501539 0.0 3.31043245086633 5.653859404672113 0.0 2.988866983032195 5.830245564064018 0.0 2.66085757713174 5.987063231148371 0.0 2.328120764353386 6.1241279286225545 0.0 1.992348007440786 6.241445233020545 0.0 1.6551813220128475 6.339200578212364 0.0 1.3181916511657712 6.4177457062698435 0.0 0.9828604352142315 6.477582461415574 0.0 0.650564645435814 6.5193446619777 0.0 0.3225653838465841 6.543778782377356 0.0 0.0 6.551724137931036 0.0 6.379310344827587 0.0 0.0 6.371574077577952 0.31407682111377866 0.0 6.34778296034671 0.6334445231875032 0.0 6.307119765062537 0.9569956869191211 0.0 6.24885766136801 1.2835023971877246 0.0 6.1723795103646735 1.6116239188019836 0.0 6.077196674256852 1.9399177967186607 0.0 5.962966667343017 2.2668544284493493 0.0 5.829508935591839 2.5908350093124843 0.0 5.676818049220233 2.9102125887418753 0.0 5.505073630864956 3.22331580742248 0.0 5.31464642396203 3.52847472201402 0.0 5.106100031166463 3.8240479792160214 0.0 4.8801880164524745 4.108450486460551 0.0 4.637846258366903 4.380180653737514 0.0 4.380180653737515 4.637846258366902 0.0 4.108450486460551 4.880188016452473 0.0 3.8240479792160214 5.106100031166458 0.0 3.5284747220140202 5.314646423962026 0.0 3.2233158074224795 5.505073630864952 0.0 2.9102125887418744 5.676818049220228 0.0 2.5908350093124835 5.829508935591834 0.0 2.2668544284493493 5.962966667343013 0.0 1.93991779671866 6.077196674256847 0.0 1.6116239188019832 6.172379510364669 0.0 1.2835023971877246 6.248857661368005 0.0 0.9569956869191205 6.307119765062533 0.0 0.6334445231875032 6.3477829603467075 0.0 0.3140768211137792 6.371574077577951 0.0 0.0 6.379310344827587 0.0 6.206896551724139 0.0 0.0 6.19936937277855 0.305588258380974 0.0 6.176221258715717 0.6163244009391922 0.0 6.1366570687094955 0.9311309386240096 0.0 6.079969616466172 1.248813143209678 0.0 6.005558442516979 1.568066515591119 0.0 5.912948115493151 1.8874875859965345 0.0 5.801805406063477 2.205588092545313 0.0 5.6719546400353025 2.520812441493228 0.0 5.523390534376444 2.831558194451554 0.0 5.3562878570577945 3.1361991639786284 0.0 5.171007331422514 3.4331105403379647 0.0 4.968097327621423 3.7206953311291016 0.0 4.748291043034839 3.9974112841237783 0.0 4.5124990621948236 4.261797392825689 0.0 4.261797392825691 4.512499062194823 0.0 3.997411284123781 4.748291043034839 0.0 3.7206953311291033 4.96809732762142 0.0 3.4331105403379656 5.17100733142251 0.0 3.1361991639786293 5.35628785705779 0.0 2.8315581944515538 5.523390534376438 0.0 2.520812441493228 5.671954640035297 0.0 2.2055880925453133 5.801805406063472 0.0 1.887487585996534 5.912948115493146 0.0 1.5680665155911189 6.005558442516975 0.0 1.248813143209678 6.079969616466167 0.0 0.9311309386240091 6.136657068709491 0.0 0.6163244009391924 6.1762212587157155 0.0 0.30558825838097436 6.199369372778548 0.0 0.0 6.20689655172414 0.0 6.0344827586206895 0.0 0.0 6.027164667979144 0.29709969564816907 0.0 6.004659557084727 0.5992042786908814 0.0 5.966194372356451 0.9052661903288979 0.0 5.911081571564331 1.214123889231631 0.0 5.838737374669284 1.5245091123802545 0.0 5.748699556729452 1.8350573752744088 0.0 5.640644144783934 2.1443217566412756 0.0 5.514400344478766 2.450789873673971 0.0 5.369963019532653 2.752903800161233 0.0 5.207502083250633 3.0490825205347774 0.0 5.027368238883 3.33774635866191 0.0 4.8300946240763825 3.6173426830421818 0.0 4.616394069617205 3.886372081787006 0.0 4.387151866022746 4.143414131913865 0.0 4.1434141319138655 4.387151866022744 0.0 3.8863720817870093 4.616394069617204 0.0 3.6173426830421835 4.83009462407638 0.0 3.337746358661911 5.027368238882997 0.0 3.049082520534778 5.2075020832506285 0.0 2.752903800161233 5.369963019532648 0.0 2.4507898736739713 5.514400344478761 0.0 2.1443217566412764 5.640644144783929 0.0 1.8350573752744084 5.7486995567294485 0.0 1.5245091123802545 5.8387373746692806 0.0 1.2141238892316317 5.911081571564328 0.0 0.9052661903288974 5.966194372356448 0.0 0.5992042786908813 6.004659557084723 0.0 0.29709969564816957 6.027164667979143 0.0 0.0 6.0344827586206895 0.0 5.862068965517242 0.0 0.0 5.85495996317974 0.2886111329153642 0.0 5.833097855453732 0.5820841564425703 0.0 5.7957316760034105 0.8794014420337866 0.0 5.742193526662494 1.1794346352535847 0.0 5.671916306821591 1.4809517091693898 0.0 5.584450997965753 1.7826271645522822 0.0 5.479482883504392 2.083055420737239 0.0 5.356846048922228 2.3807673058547136 0.0 5.216535504688862 2.674249405870912 0.0 5.058716309443471 2.9619658770909263 0.0 4.883729146343485 3.2423821769858554 0.0 4.692091920531343 3.5139900349552624 0.0 4.48449709619957 3.7753328794502363 0.0 4.261804669850667 4.0250308710020395 0.0 4.0250308710020395 4.261804669850666 0.0 3.7753328794502368 4.48449709619957 0.0 3.5139900349552633 4.692091920531341 0.0 3.2423821769858554 4.883729146343481 0.0 2.9619658770909263 5.058716309443469 0.0 2.6742494058709108 5.216535504688858 0.0 2.380767305854714 5.356846048922225 0.0 2.0830554207372396 5.47948288350439 0.0 1.7826271645522827 5.584450997965751 0.0 1.4809517091693896 5.671916306821586 0.0 1.179434635253585 5.74219352666249 0.0 0.8794014420337863 5.795731676003408 0.0 0.5820841564425705 5.833097855453731 0.0 0.2886111329153648 5.85495996317974 0.0 0.0 5.862068965517243 0.0 5.689655172413794 0.0 0.0 5.682755258380336 0.28012257018255937 0.0 5.661536153822742 0.5649640341942597 0.0 5.62526897965037 0.8535366937386755 0.0 5.573305481760656 1.1447453812755382 0.0 5.505095238973897 1.4373943059585257 0.0 5.420202439202055 1.730196953830157 0.0 5.318321622224851 2.0217890848332027 0.0 5.199291753365692 2.3107447380354578 0.0 5.063107989845072 2.595595011580591 0.0 4.909930535636311 2.874849233647077 0.0 4.74009005380397 3.1470179953098003 0.0 4.554089216986303 3.410637386868343 0.0 4.352600122781935 3.664293677113464 0.0 4.136457473678588 3.9066476100902157 0.0 3.9066476100902143 4.136457473678588 0.0 3.6642936771134647 4.3526001227819355 0.0 3.410637386868343 4.554089216986302 0.0 3.1470179953098003 4.740090053803969 0.0 2.8748492336470757 4.909930535636309 0.0 2.59559501158059 5.063107989845069 0.0 2.3107447380354573 5.1992917533656895 0.0 2.0217890848332027 5.3183216222248495 0.0 1.730196953830156 5.420202439202051 0.0 1.4373943059585255 5.505095238973894 0.0 1.1447453812755384 5.573305481760652 0.0 0.8535366937386749 5.625268979650365 0.0 0.5649640341942594 5.661536153822739 0.0 0.2801225701825599 5.682755258380335 0.0 0.0 5.689655172413794 0.0 5.517241379310345 0.0 0.0 5.510550553580931 0.2716340074497546 0.0 5.489974452191747 0.5478439119459486 0.0 5.4548062832973265 0.8276719454435639 0.0 5.404417436858816 1.1100561272974918 0.0 5.338274171126202 1.3938369027476616 0.0 5.255953880438354 1.6777667431080308 0.0 5.157160360945309 1.9605227489291666 0.0 5.041737457809156 2.2407221702162023 0.0 4.909680475001281 2.5169406172902704 0.0 4.761144761829148 2.7877325902032255 0.0 4.5964509612644555 3.051653813633747 0.0 4.416086513441262 3.3072847387814237 0.0 4.220703149364301 3.553254474776693 0.0 4.011110277506509 3.788264349178391 0.0 3.788264349178389 4.01111027750651 0.0 3.5532544747766917 4.220703149364301 0.0 3.307284738781423 4.416086513441263 0.0 3.0516538136337457 4.5964509612644555 0.0 2.787732590203224 4.761144761829147 0.0 2.516940617290269 4.909680475001279 0.0 2.240722170216202 5.041737457809154 0.0 1.9605227489291668 5.1571603609453085 0.0 1.6777667431080303 5.255953880438354 0.0 1.3938369027476611 5.3382741711262 0.0 1.1100561272974918 5.4044174368588145 0.0 0.8276719454435636 5.454806283297325 0.0 0.5478439119459487 5.489974452191747 0.0 0.2716340074497551 5.510550553580931 0.0 0.0 5.517241379310345 0.0 5.344827586206897 0.0 0.0 5.338345848781527 0.2631454447169498 0.0 5.318412750560756 0.5307237896976378 0.0 5.284343586944285 0.8018071971484526 0.0 5.235529391956979 1.0753668733194452 0.0 5.171453103278507 1.350279499536797 0.0 5.091705321674657 1.625336532385905 0.0 4.995999099665769 1.8992564130251306 0.0 4.8841831622526195 2.170699602396946 0.0 4.75625296015749 2.43828622299995 0.0 4.612358988021989 2.7006159467593753 0.0 4.452811868724941 2.9562896319576923 0.0 4.278083809896224 3.203932090694505 0.0 4.088806175946667 3.442215272439922 0.0 3.885763081334431 3.669881088266566 0.0 3.669881088266565 3.8857630813344315 0.0 3.4422152724399213 4.088806175946668 0.0 3.2039320906945044 4.278083809896224 0.0 2.956289631957691 4.4528118687249405 0.0 2.700615946759374 4.612358988021987 0.0 2.4382862229999485 4.756252960157489 0.0 2.1706996023969456 4.884183162252619 0.0 1.8992564130251302 4.995999099665767 0.0 1.6253365323859046 5.091705321674656 0.0 1.3502794995367966 5.171453103278505 0.0 1.075366873319445 5.235529391956977 0.0 0.8018071971484524 5.284343586944283 0.0 0.5307237896976378 5.318412750560754 0.0 0.2631454447169502 5.338345848781526 0.0 0.0 5.344827586206897 0.0 5.17241379310345 0.0 0.0 5.166141143982124 0.2546568819841448 0.0 5.146851048929764 0.5136036674493268 0.0 5.113880890591245 0.7759424488533413 0.0 5.066641347055141 1.0406776193413985 0.0 5.004632035430815 1.3067220963259327 0.0 4.927456762910958 1.572906321663779 0.0 4.834837838386228 1.837990077121094 0.0 4.726628866696084 2.1006770345776897 0.0 4.602825445313702 2.359631828709629 0.0 4.463573214214827 2.6134993033155243 0.0 4.309172776185426 2.8609254502816373 0.0 4.140081106351184 3.100579442607585 0.0 3.956909202529032 3.331176070103149 0.0 3.7604158851623524 3.5514978273547415 0.0 3.5514978273547406 3.7604158851623533 0.0 3.33117607010315 3.956909202529033 0.0 3.1005794426075846 4.140081106351184 0.0 2.8609254502816373 4.309172776185427 0.0 2.613499303315524 4.463573214214827 0.0 2.3596318287096283 4.602825445313701 0.0 2.1006770345776893 4.726628866696082 0.0 1.8379900771210935 4.8348378383862265 0.0 1.5729063216637784 4.927456762910957 0.0 1.306722096325932 5.004632035430813 0.0 1.0406776193413985 5.066641347055139 0.0 0.7759424488533411 5.1138808905912425 0.0 0.5136036674493271 5.146851048929763 0.0 0.2546568819841454 5.166141143982123 0.0 0.0 5.17241379310345 0.0 5.0 0.0 0.0 4.993936439182718 0.24616831925134006 0.0 4.975289347298771 0.49648354520101595 0.0 4.943418194238201 0.7500777005582299 0.0 4.897753302153301 1.005988365363352 0.0 4.837810967583119 1.2631646931150682 0.0 4.763208204147258 1.5204761109416527 0.0 4.673676577106685 1.7767237412170571 0.0 4.569074571139545 2.0306544667584334 0.0 4.4493979304699085 2.2809774344193077 0.0 4.314787440407664 2.5263826598716728 0.0 4.165533683645912 2.7655612686055826 0.0 4.002078402806144 2.9972267945206648 0.0 3.8250122291113966 3.220136867766378 0.0 3.6350686889902732 3.4331145664429163 0.0 3.433114566442915 3.6350686889902746 0.0 3.220136867766377 3.8250122291113984 0.0 2.9972267945206643 4.002078402806144 0.0 2.765561268605582 4.165533683645913 0.0 2.5263826598716728 4.314787440407666 0.0 2.280977434419307 4.449397930469909 0.0 2.030654466758433 4.569074571139546 0.0 1.7767237412170573 4.6736765771066855 0.0 1.5204761109416525 4.763208204147258 0.0 1.2631646931150677 4.837810967583119 0.0 1.0059883653633517 4.897753302153301 0.0 0.7500777005582294 4.943418194238201 0.0 0.496483545201016 4.97528934729877 0.0 0.2461683192513405 4.993936439182718 0.0 0.0 5.0 0.0</DataArray>
</Points>
<Cells>
<DataArray Name="connectivity" format="ascii" type="Int32">0 30 31 1 1 31 32 2 2 32 33 3 3 33 34 4 4 34 35 5 5 35 36 6 6 36 37 7 7 37 38 8 8 38 39 9 9 39 40 10 10 40 41 11 11 41 42 12 12 42 43 13 13 43 44 14 14 44 45 15 15 45 46 16 16 46 47 17 17 47 48 18 18 48 49 19 19 49 50 20 20 50 51 21 21 51 52 22 22 52 53 23 23 53 54 24 24 54 55 25 25 55 56 26 26 56 57 27 27 57 58 28 28 58 59 29 30 60 61 31 31 61 62 32 32 62 63 33 33 63 64 34 34 64 65 35 35 65 66 36 36 66 67 37 37 67 68 38 38 68 69 39 39 69 70 40 40 70 71 41 41 71 72 42 42 72 73 43 43 73 74 44 44 74 75 45 45 75 76 46 46 76 77 47 47 77 78 48 48 78 79 49 49 79 80 50 50 80 81 51 51 81 82 52 52 82 83 53 53 83 84 54 54 84 85 55 55 85 86 56 56 86 87 57 57 87 88 58 58 88 89 59 60 90 91 61 61 91 92 62 62 92 93 63 63 93 94 64 64 94 95 65 65 95 96 66 66 96 97 67 67 97 98 68 68 98 99 69 69 99 100 70 70 100 101 71 71 101 102 72 72 102 103 73 73 103 104 74 74 104 105 75 75 105 106 76 76 106 107 77 77 107 108 78 78 108 109 79 79 109 110 80 80 110 111 81 81 111 112 82 82 112 113 83 83 113 114 84 84 114 115 85 85 115 116 86 86 116 117 87 87 117 118 88 88 118 119 89 90 120 121 91 91 121 122 92 92 122 123 93 93 123 124 94 94 124 125 95 95 125 126 96 96 126 127 97 97 127 128 98 98 128 129 99 99 129 130 100 100 130 131 101 101 131 132 102 102 132 133 103 103 133 134 104 104 134 135 105 105 135 136 106 106 136 137 107 107 137 138 108 108 138 139 109 109 139 140 110 110 140 141 111 111 141 142 112 112 142 143 113 113 143 144 114 114 144 145 115 115 145 146 116 116 146 147 117 117 147 148 118 118 148 149 119 120 150 151 121 121 151 152 122 122 152 153 123 123 153 154 124 124 154 155 125 125 155 156 126 126 156 157 127 127 157 158 128 128 158 159 129 129 159 160 130 130 160 161 131 131 161 162 132 132 162 163 133 133 163 164 134 134 164 165 135 135 165 166 136 136 166 167 137 137 167 168 138 138 168 169 139 139 169 170 140 140 170 171 141 141 171 172 142 142 172 173 143 143 173 174 144 144 174 175 145 145 175 176 146 146 176 177 147 147 177 178 148 148 178 179 149 150 180 181 151 151 181 182 152 152 182 183 153 153 183 184 154 154 184 185 155 155 185 186 156 156 186 187 157 157 187 188 158 158 188 189 159 159 189 190 160 160 190 191 161 161 191 192 162 162 192 193 163 163 193 194 164 164 194 195 165 165 195 196 166 166 196 197 167 167 197 198 168 168 198 199 169 169 199 200 170 170 200 201 171 171 201 202 172 172 202 203 173 173 203 204 174 174 204 205 175 175 205 206 176 176 206 207 177 177 207 208 178 178 208 209 179 180 210 211 181 181 211 212 182 182 212 213 183 183 213 214 184 184 214 215 185 185 215 216 186 186 216 217 187 187 217 218 188 188 218 219 189 189 219 220 190 190 220 221 191 191 221 222 192 192 222 223 193 193 223 224 194 194 224 225 195 195 225 226 196 196 226 227 197 197 227 228 198 198 228 229 199 199 229 230 200 200 230 231 201 201 231 232 202 202 232 233 203 203 233 234 204 204 234 235 205 205 235 236 206 206 236 237 207 207 237 238 208 208 238 239 209 210 240 241 211 211 241 242 212 212 242 243 213 213 243 244 214 214 244 245 215 215 245 246 216 216 246 247 217 217 247 248 218 218 248 249 219 219 249 250 220 220 250 251 221 221 251 252 222 222 252 253 223 223 253 254 224 224 254 255 225 225 255 256 226 226 256 257 227 227 257 258 228 228 258 259 229 229 259 260 230 230 260 261 231 231 261 262 232 232 262 263 233 233 263 264 234 234 264 265 235 235 265 266 236 236 266 267 237 237 267 268 238 238 268 269 239 240 270 271 241 241 271 272 242 242 272 273 243 243 273 274 244 244 274 275 245 245 275 276 246 246 276 277 247 247 277 278 248 248 278 279 249 249 279 280 250 250 280 281 251 251 281 282 252 252 282 283 253 253 283 284 254 254 284 285 255 255 285 286 256 256 286 287 257 257 287 288 258 258 288 289 259 259 289 290 260 260 290 291 261 261 291 292 262 262 292 293 263 263 293 294 264 264 294 295 265 265 295 296 266 266 296 297 267 267 297 298 268 268 298 299 269 270 300 301 271 271 301 302 272 272 302 303 273 273 303 304 274 274 304 305 275 275 305 306 276 276 306 307 277 277 307 308 278 278 308 309 279 279 309 310 280 280 310 311 281 281 311 312 282 282 312 313 283 283 313 314 284 284 314 315 285 285 315 316 286 286 316 317 287 287 317 318 288 288 318 319 289 289 319 320 290 290 320 321 291 291 321 322 292 292 322 323 293 293 323 324 294 294 324 325 295 295 325 326 296 296 326 327 297 297 327 328 298 298 328 329 299 300 330 331 301 301 331 332 302 302 332 333 303 303 333 334 304 304 334 335 305 305 335 336 306 306 336 337 307 307 337 338 308 308 338 339 309 309 339 340 310 310 340 341 311 311 341 342 312 312 342 343 313 313 343 344 314 314 344 345 315 315 345 346 316 316 346 347 317 317 347 348 318 318 348 349 319 319 349 350 320 320 350 351 321 321 351 352 322 322 352 353 323 323 353 354 324 324 354 355 325 325 355 356 326 326 356 357 327 327 357 358 328 328 358 359 329 330 360 361 331 331 361 362 332 332 362 363 333 333 363 364 334 334 364 365 335 335 365 366 336 336 366 367 337 337 367 368 338 338 368 369 339 339 369 370 340 340 370 371 341 341 371 372 342 342 372 373 343 343 373 374 344 344 374 375 345 345 375 376 346 346 376 377 347 347 377 378 348 348 378 379 349 349 379 380 350 350 380 381 351 351 381 382 352 352 382 383 353 353 383 384 354 354 384 385 355 355 385 386 356 356 386 387 357 357 387 388 358 358 388 389 359 360 390 391 361 361 391 392 362 362 392 393 363 363 393 394 364 364 394 395 365 365 395 396 366 366 396 397 367 367 397 398 368 368 398 399 369 369 399 400 370 370 400 401 371 371 401 402 372 372 402 403 373 373 403 404 374 374 404 405 375 375 405 406 376 376 406 407 377 377 407 408 378 378 408 409 379 379 409 410 380 380 410 411 381 381 411 412 382 382 412 413 383 383 413 414 384 384 414 415 385 385 415 416 386 386 416 417 387 387 417 418 388 388 418 419 389 390 420 421 391 391 421 422 392 392 422 423 393 393 423 424 394 394 424 425 395 395 425 426 396 396 426 427 397 397 427 428 398 398 428 429 399 399 429 430 400 400 430 431 401 401 431 432 402 402 432 433 403 403 433 434 404 404 434 435 405 405 435 436 406 406 436 437 407 407 437 438 408 408 438 439 409 409 439 440 410 410 440 441 411 411 441 442 412 412 442 443 413 413 443 444 414 414 444 445 415 415 445 446 416 416 446 447 417 417 447 448 418 418 448 449 419 420 450 451 421 421 451 452 422 422 452 453 423 423 453 454 424 424 454 455 425 425 455 456 426 426 456 457 427 427 457 458 428 428 458 459 429 429 459 460 430 430 460 461 431 431 461 462 432 432 462 463 433 433 463 464 434 434 464 465 435 435 465 466 436 436 466 467 437 437 467 468 438 438 468 469 439 439 469 470 440 440 470 471 441 441 471 472 442 442 472 473 443 443 473 474 444 444 474 475 445 445 475 476 446 446 476 477 447 447 477 478 448 448 478 479 449 450 480 481 451 451 481 482 452 452 482 483 453 453 483 484 454 454 484 485 455 455 485 486 456 456 486 487 457 457 487 488 458 458 488 489 459 459 489 490 460 460 490 491 461 461 491 492 462 462 492 493 463 463 493 494 464 464 494 495 465 465 495 496 466 466 496 497 467 467 497 498 468 468 498 499 469 469 499 500 470 470 500 501 471 471 501 502 472 472 502 503 473 473 503 504 474 474 504 505 475 475 505 506 476 476 506 507 477 477 507 508 478 478 508 509 479 480 510 511 481 481 511 512 482 482 512 513 483 483 513 514 484 484 514 515 485 485 515 516 486 486 516 517 487 487 517 518 488 488 518 519 489 489 519 520 490 490 520 521 491 491 521 522 492 492 522 523 493 493 523 524 494 494 524 525 495 495 525 526 496 496 526 527 497 497 527 528 498 498 528 529 499 499 529 530 500 500 530 531 501 501 531 532 502 502 532 533 503 503 533 534 504 504 534 535 505 505 535 536 506 506 536 537 507 507 537 538 508 508 538 539 509 510 540 541 511 511 541 542 512 512 542 543 513 513 543 544 514 514 544 545 515 515 545 546 516 516 546 547 517 517 547 548 518 518 548 549 519 519 549 550 520 520 550 551 521 521 551 552 522 522 552 553 523 523 553 554 524 524 554 555 525 525 555 556 526 526 556 557 527 527 557 558 528 528 558 559 529 529 559 560 530 530 560 561 531 531 561 562 532 532 562 563 533 533 563 564 534 534 564 565 535 535 565 566 536 536 566 567 537 537 567 568 538 538 568 569 539 540 570 571 541 541 571 572 542 542 572 573 543 543 573 574 544 544 574 575 545 545 575 576 546 546 576 577 547 547 577 578 548 548 578 579 549 549 579 580 550 550 580 581 551 551 581 582 552 552 582 583 553 553 583 584 554 554 584 585 555 555 585 586 556 556 586 587 557 557 587 588 558 558 588 589 559 559 589 590 560 560 590 591 561 561 591 592 562 562 592 593 563 563 593 594 564 564 594 595 565 565 595 596 566 566 596 597 567 567 597 598 568 568 598 599 569 570 600 601 571 571 601 602 572 572 602 603 573 573 603 604 574 574 604 605 575 575 605 606 576 576 606 607 577 577 607 608 578 578 608 609 579 579 609 610 580 580 610 611 581 581 611 612 582 582 612 613 583 583 613 614 584 584 614 615 585 585 615 616 586 586 616 617 587 587 617 618 588 588 618 619 589 589 619 620 590 590 620 621 591 591 621 622 592 592 622 623 593 593 623 624 594 594 624 625 595 595 625 626 596 596 626 627 597 597 627 628 598 598 628 629 599 600 630 631 601 601 631 632 602 602 632 633 603 603 633 634 604 604 634 635 605 605 635 636 606 606 636 637 607 607 637 638 608 608 638 639 609 609 639 640 610 610 640 641 611 611 641 642 612 612 642 643 613 613 643 644 614 614 644 645 615 615 645 646 616 616 646 647 617 617 647 648 618 618 648 649 619 619 649 650 620 620 650 651 621 621 651 652 622 622 652 653 623 623 653 654 624 624 654 655 625 625 655 656 626 626 656 657 627 627 657 658 628 628 658 659 629 630 660 661 631 631 661 662 632 632 662 663 633 633 663 664 634 634 664 665 635 635 665 666 636 636 666 667 637 637 667 668 638 638 668 669 639 639 669 670 640 640 670 671 641 641 671 672 642 642 672 673 643 643 673 674 644 644 674 675 645 645 675 676 646 646 676 677 647 647 677 678 648 648 678 679 649 649 679 680 650 650 680 681 651 651 681 682 652 652 682 683 653 653 683 684 654 654 684 685 655 655 685 686 656 656 686 687 657 657 687 688 658 658 688 689 659 660 690 691 661 661 691 692 662 662 692 693 663 663 693 694 664 664 694 695 665 665 695 696 666 666 696 697 667 667 697 698 668 668 698 699 669 669 699 700 670 670 700 701 671 671 701 702 672 672 702 703 673 673 703 704 674 674 704 705 675 675 705 706 676 676 706 707 677 677 707 708 678 678 708 709 679 679 709 710 680 680 710 711 681 681 711 712 682 682 712 713 683 683 713 714 684 684 714 715 685 685 715 716 686 686 716 717 687 687 717 718 688 688 718 719 689 690 720 721 691 691 721 722 692 692 722 723 693 693 723 724 694 694 724 725 695 695 725 726 696 696 726 727 697 697 727 728 698 698 728 729 699 699 729 730 700 700 730 731 701 701 731 732 702 702 732 733 703 703 733 734 704 704 734 735 705 705 735 736 706 706 736 737 707 707 737 738 708 708 738 739 709 709 739 740 710 710 740 741 711 711 741 742 712 712 742 743 713 713 743 744 714 714 744 745 715 715 745 746 716 716 746 747 717 717 747 748 718 718 748 749 719 720 750 751 721 721 751 752 722 722 752 753 723 723 753 754 724 724 754 755 725 725 755 756 726 726 756 757 727 727 757 758 728 728 758 759 729 729 759 760 730 730 760 761 731 731 761 762 732 732 762 763 733 733 763 764 734 734 764 765 735 735 765 766 736 736 766 767 737 737 767 768 738 738 768 769 739 739 769 770 740 740 770 771 741 741 771 772 742 742 772 773 743 743 773 774 744 744 774 775 745 745 775 776 746 746 776 777 747 747 777 778 748 748 778 779 749 750 780 781 751 751 781 782 752 752 782 783 753 753 783 784 754 754 784 785 755 755 785 786 756 756 786 787 757 757 787 788 758 758 788 789 759 759 789 790 760 760 790 791 761 761 791 792 762 762 792 793 763 763 793 794 764 764 794 795 765 765 795 796 766 766 796 797 767 767 797 798 768 768 798 799 769 769 799 800 770 770 800 801 771 771 801 802 772 772 802 803 773 773 803 804 774 774 804 805 775 775 805 806 776 776 806 807 777 777 807 808 778 778 808 809 779 780 810 811 781 781 811 812 782 782 812 813 783 783 813 814 784 784 814 815 785 785 815 816 786 786 816 817 787 787 817 818 788 788 818 819 789 789 819 820 790 790 820 821 791 791 821 822 792 792 822 823 793 793 823 824 794 794 824 825 795 795 825 826 796 796 826 827 797 797 827 828 798 798 828 829 799 799 829 830 800 800 830 831 801 801 831 832 802 802 832 833 803 803 833 834 804 804 834 835 805 805 835 836 806 806 836 837 807 807 837 838 808 808 838 839 809 810 840 841 811 811 841 842 812 812 842 843 813 813 843 844 814 814 844 845 815 815 845 846 816 816 846 847 817 817 847 848 818 818 848 849 819 819 849 850 820 820 850 851 821 821 851 852 822 822 852 853 823 823 853 854 824 824 854 855 825 825 855 856 826 826 856 857 827 827 857 858 828 828 858 859 829 829 859 860 830 830 860 861 831 831 861 862 832 832 862 863 833 833 863 864 834 834 864 865 835 835 865 866 836 836 866 867 837 837 867 868 838 838 868 869 839 840 870 871 841 841 871 872 842 842 872 873 843 843 873 874 844 844 874 875 845 845 875 876 846 846 876 877 847 847 877 878 848 848 878 879 849 849 879 880 850 850 880 881 851 851 881 882 852 852 882 883 853 853 883 884 854 854 884 885 855 855 885 886 856 856 886 887 857 857 887 888 858 858 888 889 859 859 889 890 860 860 890 891 861 861 891 892 862 862 892 893 863 863 893 894 864 864 894 895 865 865 895 896 866 866 896 897 867 867 897 898 868 868 898 899 869</DataArray>
<DataArray Name="offsets" format="ascii" type="Int32">4 8 12 16 20 24 28 32 36 40 44 48 52 56 60 64 68 72 76 80 84 88 92 96 100 104 108 112 116 120 124 128 132 136 140 144 148 152 156 160 164 168 172 176 180 184 188 192 196 200 204 208 212 216 220 224 228 232 236 240 244 248 252 256 260 264 268 272 276 280 284 288 292 296 300 304 308 312 316 320 324 328 332 336 340 344 348 352 356 360 364 368 372 376 380 384 388 392 396 400 404 408 412 416 420 424 428 432 436 440 444 448 452 456 460 464 468 472 476 480 484 488 492 496 500 504 508 512 516 520 524 528 532 536 540 544 548 552 556 560 564 568 572 576 580 584 588 592 596 600 604 608 612 616 620 624 628 632 636 640 644 648 652 656 660 664 668 672 676 680 684 688 692 696 700 704 708 712 716 720 724 728 732 736 740 744 748 752 756 760 764 768 772 776 780 784 788 792 796 800 804 808 812 816 820 824 828 832 836 840 844 848 852 856 860 864 868 872 876 880 884 888 892 896 900 904 908 912 916 920 924 928 932 936 940 944 948 952 956 960 964 968 972 976 980 984 988 992 996 1000 1004 1008 1012 1016 1020 1024 1028 1032 1036 1040 1044 1048 1052 1056 1060 1064 1068 1072 1076 1080 1084 1088 1092 1096 1100 1104 1108 1112 1116 1120 1124 1128 1132 1136 1140 1144 1148 1152 1156 1160 1164 1168 1172 1176 1180 1184 1188 1192 1196 1200 1204 1208 1212 1216 1220 1224 1228 1232 1236 1240 1244 1248 1252 1256 1260 1264 1268 1272 1276 1280 1284 1288 1292 1296 1300 1304 1308 1312 1316 1320 1324 1328 1332 1336 1340 1344 1348 1352 1356 1360 1364 1368 1372 1376 1380 1384 1388 1392 1396 1400 1404 1408 1412 1416 1420 1424 1428 1432 1436 1440 1444 1448 1452 1456 1460 1464 1468 1472 1476 1480 1484 1488 1492 1496 1500 1504 1508 1512 1516 1520 1524 1528 1532 1536 1540 1544 1548 1552 1556 1560 1564 1568 1572 1576 1580 1584 1588 1592 1596 1600 1604 1608 1612 1616 1620 1624 1628 1632 1636 1640 1644 1648 1652 1656 1660 1664 1668 1672 1676 1680 1684 1688 1692 1696 1700 1704 1708 1712 1716 1720 1724 1728 1732 1736 1740 1744 1748 1752 1756 1760 1764 1768 1772 1776 1780 1784 1788 1792 1796 1800 1804 1808 1812 1816 1820 1824 1828 1832 1836 1840 1844 1848 1852 1856 1860 1864 1868 1872 1876 1880 1884 1888 1892 1896 1900 1904 1908 1912 1916 1920 1924 1928 1932 1936 1940 1944 1948 1952 1956 1960 1964 1968 1972 1976 1980 1984 1988 1992 1996 2000 2004 2008 2012 2016 2020 2024 2028 2032 2036 2040 2044 2048 2052 2056 2060 2064 2068 2072 2076 2080 2084 2088 2092 2096 2100 2104 2108 2112 2116 2120 2124 2128 2132 2136 2140 2144 2148 2152 2156 2160 2164 2168 2172 2176 2180 2184 2188 2192 2196 2200 2204 2208 2212 2216 2220 2224 2228 2232 2236 2240 2244 2248 2252 2256 2260 2264 2268 2272 2276 2280 2284 2288 2292 2296 2300 2304 2308 2312 2316 2320 2324 2328 2332 2336 2340 2344 2348 2352 2356 2360 2364 2368 2372 2376 2380 2384 2388 2392 2396 2400 2404 2408 2412 2416 2420 2424 2428 2432 2436 2440 2444 2448 2452 2456 2460 2464 2468 2472 2476 2480 2484 2488 2492 2496 2500 2504 2508 2512 2516 2520 2524 2528 2532 2536 2540 2544 2548 2552 2556 2560 2564 2568 2572 2576 2580 2584 2588 2592 2596 2600 2604 2608 2612 2616 2620 2624 2628 2632 2636 2640 2644 2648 2652 2656 2660 2664 2668 2672 2676 2680 2684 2688 2692 2696 2700 2704 2708 2712 2716 2720 2724 2728 2732 2736 2740 2744 2748 2752 2756 2760 2764 2768 2772 2776 2780 2784 2788 2792 2796 2800 2804 2808 2812 2816 2820 2824 2828 2832 2836 2840 2844 2848 2852 2856 2860 2864 2868 2872 2876 2880 2884 2888 2892 2896 2900 2904 2908 2912 2916 2920 2924 2928 2932 2936 2940 2944 2948 2952 2956 2960 2964 2968 2972 2976 2980 2984 2988 2992 2996 3000 3004 3008 3012 3016 3020 3024 3028 3032 3036 3040 3044 3048 3052 3056 3060 3064 3068 3072 3076 3080 3084 3088 3092 3096 3100 3104 3108 3112 3116 3120 3124 3128 3132 3136 3140 3144 3148 3152 3156 3160 3164 3168 3172 3176 3180 3184 3188 3192 3196 3200 3204 3208 3212 3216 3220 3224 3228 3232 3236 3240 3244 3248 3252 3256 3260 3264 3268 3272 3276 3280 3284 3288 3292 3296 3300 3304 3308 3312 3316 3320 3324 3328 3332 3336 3340 3344 3348 3352 3356 3360 3364</DataArray>
<DataArray Name="types" format="ascii" type="UInt8">9 9 9 9 9 9 9 9 9 9 9 9 9 9 9 9 9 9 9 9 9 9 9 9 9 9 9 9 9 9 9 9 9 9 9 9 9 9 9 9 9 9 9 9 9 9 9 9 9 9 9 9 9 9 9 9 9 9 9 9 9 9 9 9 9 9 9 9 9 9 9 9 9 9 9 9 9 9 9 9 9 9 9 9 9 9 9 9 9 9 9 9 9 9 9 9 9 9 9 9 9 9 9 9 9 9 9 9 9 9 9 9 9 9 9 9 9 9 9 9 9 9 9 9 9 9 9 9 9 9 9 9 9 9 9 9 9 9 9 9 9 9 9 9 9 9 9 9 9 9 9 9 9 9 9 9 9 9 9 9 9 9 9 9 9 9 9 9 9 9 9 9 9 9 9 9 9 9 9 9 9 9 9 9 9 9 9 9 9 9 9 9 9 9 9 9 9 9 9 9 9 9 9 9 9 9 9 9 9 9 9 9 9 9 9 9 9 9 9 9 9 9 9 9 9 9 9 9 9 9 9 9 9 9 9 9 9 9 9 9 9 9 9 9 9 9 9 9 9 9 9 9 9 9 9 9 9 9 9 9 9 9 9 9 9 9 9 9 9 9 9 9 9 9 9 9 9 9 9 9 9 9 9 9 9 9 9 9 9 9 9 9 9 9 9 9 9 9 9 9 9 9 9 9 9 9 9 9 9 9 9 9 9 9 9 9 9 9 9 9 9 9 9 9 9 9 9 9 9 9 9 9 9 9 9 9 9 9 9 9 9 9 9 9 9 9 9 9 9 9 9 9 9 9 9 9 9 9 9 9 9 9 9 9 9 9 9 9 9 9 9 9 9 9 9 9 9 9 9 9 9 9 9 9 9 9 9 9 9 9 9 9 9 9 9 9 9 9 9 9 9 9 9 9 9 9 9 9 9 9 9 9 9 9 9 9 9 9 9 9 9 9 9 9 9 9 9 9 9 9 9 9 9 9 9 9 9 9 9 9 9 9 9 9 9 9 9 9 9 9 9 9 9 9 9 9 9 9 9 9 9 9 9 9 9 9 9 9 9 9 9 9 9 9 9 9 9 9 9 9 9 9 9 9 9 9 9 9 9 9 9 9 9 9 9 9 9 9 9 9 9 9 9 9 9 9 9 9 9 9 9 9 9 9 9 9 9 9 9 9 9 9 9 9 9 9 9 9 9 9 9 9 9 9 9 9 9 9 9 9 9 9 9 9 9 9 9 9 9 9 9 9 9 9 9 9 9 9 9 9 9 9 9 9 9 9 9 9 9 9 9 9 9 9 9 9 9 9 9 9 9 9 9 9 9 9 9 9 9 9 9 9 9 9 9 9 9 9 9 9 9 9 9 9 9 9 9 9 9 9 9 9 9 9 9 9 9 9 9 9 9 9 9 9 9 9 9 9 9 9 9 9 9 9 9 9 9 9 9 9 9 9 9 9 9 9 9 9 9 9 9 9 9 9 9 9 9 9 9 9 9 9 9 9 9 9 9 9 9 9 9 9 9 9 9 9 9 9 9 9 9 9 9 9 9 9 9 9 9 9 9 9 9 9 9 9 9 9 9 9 9 9 9 9 9 9 9 9 9 9 9 9 9 9 9 9 9 9 9 9 9 9 9 9 9 9 9 9 9 9 9 9 9 9 9 9 9 9 9 9 9 9 9 9 9 9 9 9 9 9 9 9 9 9 9 9 9 9 9 9 9 9 9 9 9 9 9 9 9 9 9 9 9 9 9 9 9 9 9 9 9 9 9 9 9 9 9 9 9 9 9 9 9 9 9 9 9 9 9 9 9 9 9 9 9 9 9 9 9 9 9 9 9 9 9 9 9 9 9 9 9 9 9 9 9 9 9 9 9 9 9 9 9 9 9 9 9 9 9 9 9</DataArray>
</Cells>
<PointData>
<DataArray Name="displ" NumberOfComponents="3" format="ascii" type="Float32">0.0 0.0 0.0 0.0008890296341321114 -0.001066919015265388 0.0 0.0015778512840162423 -0.0019190658483964392 0.0 0.0025209691730857 -0.0027926441898358774 0.0 0.0037853002792319116 -0.003634469201874051 0.0 0.005421525426817594 -0.0044278089744357796 0.0 0.007476973385341456 -0.005142582245850704 0.0 0.010001169883481945 -0.00573235023652257 0.0 0.013025752077892847 -0.006130482230431028 0.0 0.016524201440918946 -0.006250639763163677 0.0 0.020402275429387138 -0.006019543055816609 0.0 0.02456187696120613 -0.005386169389227552 0.0 0.02892380706775766 -0.004305710852121255 0.0 0.03341726134611421 -0.0027379094418083965 0.0 0.03796799104872189 -0.000651006853690653 0.0 0.042498926393991436 0.0019645881080690296 0.0 0.04694006877667045 0.0050902257048306655 0.0 0.05123682157335832 0.008692675812694062 0.0 0.05534889083781769 0.012745055707811656 0.0 0.05924279956667875 0.01723297449036952 0.0 0.06288436972224111 0.022152093470605642 0.0 0.06623463313617406 0.027493951148629257 0.0 0.06925355176493168 0.03322870961045104 0.0 0.07190863570793302 0.03930436574251264 0.0 0.07417808814961256 0.04565595610198358 0.0 0.07605491603243607 0.0522174022144547 0.0 0.0775432254640246 0.05893170672805648 0.0 0.07864988858264177 0.06576572648817137 0.0 0.07943342092206547 0.07273117890464229 0.0 0.07979648192735558 0.08017915931217724 0.0 0.0 0.0 0.0 0.000763097444490417 -0.0008953999158156651 0.0 0.001464875615519703 -0.0017766522601923357 0.0 0.002374411927016108 -0.0026059964988130162 0.0 0.0036041052162762827 -0.003404271763001933 0.0 0.005190263160519513 -0.004143064782792076 0.0 0.007178051928379392 -0.004791169534025732 0.0 0.009617088723874049 -0.005303402657394936 0.0 0.012539861154526783 -0.005615159753788115 0.0 0.015928595505147913 -0.005650744508322819 0.0 0.0196949283844674 -0.005343798527481918 0.0 0.023740403308640738 -0.004642912996441604 0.0 0.02798480992810441 -0.003501827803659215 0.0 0.03235814917095055 -0.001881323497222229 0.0 0.036788737239387664 0.00024636644384893876 0.0 0.041202314741148514 0.00288575154809323 0.0 0.04553051987321159 0.0060157660702762645 0.0 0.04971821977448759 0.009605314675368872 0.0 0.05372339458493695 0.013631850123392126 0.0 0.05751141241152881 0.018084474277649035 0.0 0.06104861716038848 0.022959983729540626 0.0 0.06429877816494317 0.02824835057082762 0.0 0.06722532552014 0.03391777889339575 0.0 0.0697976113171371 0.03991612568514573 0.0 0.07199529329792756 0.046179005994686294 0.0 0.07380817401203596 0.05264299975581699 0.0 0.07523561275351053 0.05925393061402342 0.0 0.07628517402628203 0.0659764448422256 0.0 0.07695099627143417 0.07283741419228826 0.0 0.07720489447728923 0.08014019927069618 0.0 0.0 0.0 0.0 0.0006545253668685958 -0.0007963620185164374 0.0 0.0013435581104439388 -0.0016301562208884937 0.0 0.002228623615308877 -0.0024177401242431295 0.0 0.003420934230692201 -0.0031646218642582885 0.0 0.0049577879560821 -0.003844549407818477 0.0 0.006879627674970026 -0.004424624539860445 0.0 0.009234351120268033 -0.004860173248562322 0.0 0.01205798935845136 -0.005091246302478792 0.0 0.015339506577814386 -0.005048265137563541 0.0 0.01899620902161704 -0.0046685769073318475 0.0 0.022929254560540416 -0.003900851733489865 0.0 0.027057695563672546 -0.0026988569900455862 0.0 0.03131222104097926 -0.001025294095199036 0.0 0.03562319469420662 0.0011434416499590933 0.0 0.03991891616385368 0.0038067711995072007 0.0 0.04413310398750673 0.006941268422253147 0.0 0.048211059802076885 0.010517999489822407 0.0 0.05210989799988612 0.014518634292698222 0.0 0.05579409130804652 0.018935671451575355 0.0 0.05923000619307743 0.02376706920614998 0.0 0.06238308435846529 0.02900140934867805 0.0 0.06521927144847624 0.034605368774253825 0.0 0.06770980448833447 0.04052630207146888 0.0 0.0698348677418062 0.046701197340693876 0.0 0.07158280974724517 0.05306889495066442 0.0 0.07294973325190314 0.059576966308340806 0.0 0.07393889524369085 0.06619127774720777 0.0 0.07453271408819513 0.07294825121389784 0.0 0.07475567586724305 0.0800630821506348 0.0 0.0 0.0 0.0 0.0005593733985882559 -0.0007237838161520951 0.0 0.0012219877303022238 -0.0014880411134048496 0.0 0.0020829981666359676 -0.0022272745469439194 0.0 0.003237684981839143 -0.0029177292225022753 0.0 0.004725705262600166 -0.003535386779720988 0.0 0.006582555362281958 -0.004046134106002536 0.0 0.008853894765822429 -0.0044063822491020865 0.0 0.011579689423474386 -0.004560786442565321 0.0 0.014756149266192788 -0.004443501315666557 0.0 0.018305642593273535 -0.003993327258533516 0.0 0.02212835080961867 -0.003159093034090313 0.0 0.02614243212307497 -0.0018954799125587701 0.0 0.030279197683447952 -0.00016791289083417432 0.0 0.03447091904574253 0.0020424691283466977 0.0 0.03864838598181504 0.00472962565879051 0.0 0.04274784082001766 0.007868019606931991 0.0 0.04671570911015224 0.011431265686279932 0.0 0.050508840645806505 0.015405420026382458 0.0 0.05409100677814406 0.0197863916760455 0.0 0.05742826447922145 0.024573275695196493 0.0 0.060486991426392175 0.029753296554921448 0.0 0.06323500186656042 0.03529167634875398 0.0 0.06564524532014215 0.04113530458047213 0.0 0.06769830440383678 0.047222758233347824 0.0 0.06938210257741213 0.05349482517088767 0.0 0.07069095331488251 0.05990049584064276 0.0 0.07162439415788084 0.0664077149974422 0.0 0.07217305286902484 0.07305348203537271 0.0 0.07239011004767558 0.07996661721152495 0.0 0.0 0.0 0.0 0.00047537344431649486 -0.0006544090042982864 0.0 0.0011042914479057475 -0.0013540435546521216 0.0 0.001937442362206746 -0.0020343908156810818 0.0 0.003055415559305008 -0.0026648512865672454 0.0 0.004494949121386264 -0.003217388642615593 0.0 0.006287408674538205 -0.0036576050105284206 0.0 0.008476275085049797 -0.003944135465874772 0.0 0.011104750825243051 -0.004024931201304363 0.0 0.014178058571757626 -0.003836617354497206 0.0 0.01762293441910319 -0.003317719108487106 0.0 0.02133764002490547 -0.002417058369864361 0.0 0.02523900297844348 -0.001090801779862832 0.0 0.029258910813175956 0.0006920885642620888 0.0 0.033331629411981575 0.0029448756244647685 0.0 0.0373904949680519 0.005655519176197855 0.0 0.041374713057728725 0.008796778226460304 0.0 0.04523236013058325 0.012345417557029382 0.0 0.0489204680718003 0.016292209776751568 0.0 0.05240225758371702 0.020636540963979606 0.0 0.05564323796250012 0.0253785735831107 0.0 0.05861017508773366 0.03050411638582393 0.0 0.061272277221673783 0.03597682650509864 0.0 0.06360393633123093 0.041743359358987875 0.0 0.06558640572816263 0.0477437989327283 0.0 0.06720782339161416 0.053920622695797844 0.0 0.06846211198642865 0.06022426747137198 0.0 0.06934834496089018 0.06662423668067172 0.0 0.06986822234874528 0.07314810219298713 0.0 0.07007784496969505 0.07986079566026617 0.0 0.0 0.0 0.0 0.00039965849190332607 -0.0005885511990296064 0.0 0.0009908249504734813 -0.0012224634526352136 0.0 0.0017941855273593532 -0.0018400801529355735 0.0 0.0028751484395092702 -0.002407443579256699 0.0 0.0042667906557699795 -0.0028929684239849653 0.0 0.005995662340682609 -0.003262110780445994 0.0 0.00810233769154961 -0.0034757662968214285 0.0 0.010633338450034464 -0.0034848973702079223 0.0 0.013604528458292088 -0.003227745742617619 0.0 0.01694751565546736 -0.0026412124255170196 0.0 0.020557001062960337 -0.0016734223352837686 0.0 0.0243474027879899 -0.00028244494788202035 0.0 0.028251078675476844 0.001557873356746063 0.0 0.032204740513278485 0.0038536700612658557 0.0 0.03614467052803059 0.0065865730615502814 0.0 0.0400134357635224 0.009728666780756928 0.0 0.04376108079960389 0.013260803643691973 0.0 0.04734502191444381 0.017178966740278023 0.0 0.05072797406986802 0.021486058997670584 0.0 0.05387475686855095 0.026183045729763453 0.0 0.0567522094098583 0.03125406360399695 0.0 0.05933064433384959 0.03666108202680702 0.0 0.06158574476363541 0.04235066332834445 0.0 0.06349966305479882 0.04826426562468191 0.0 0.06506113760854101 0.05434592370350442 0.0 0.06626450158139889 0.06054733231898812 0.0 0.06710994696883699 0.06683823400186531 0.0 0.06760781515419298 0.07323378936403749 0.0 0.06781217079830837 0.07975056760826757 0.0 0.0 0.0 0.0 0.00033122379408928766 -0.0005256994789786379 0.0 0.0008818803447982026 -0.001091755634184065 0.0 0.0016539918707785667 -0.00164462819988424 0.0 0.0026973931744432625 -0.002146185517936345 0.0 0.004041814620342551 -0.00256320323381442 0.0 0.005707991644374152 -0.0028609066078892713 0.0 0.007732608271354251 -0.0030022608262223888 0.0 0.010165639339897777 -0.002941241587594752 0.0 0.013035248316397028 -0.00261698829031892 0.0 0.016279114174281784 -0.00196354266052274 0.0 0.01978642606985393 -0.0009273404057005557 0.0 0.023467673938737593 0.0005310608391362389 0.0 0.027255547926702033 0.0024312041691786175 0.0 0.031089935159419355 0.004770357213575272 0.0 0.034910596599631354 0.007523734326156984 0.0 0.038663830516471674 0.010664118460810553 0.0 0.04230184974826615 0.01417753251828894 0.0 0.04578256490712112 0.01806567017445887 0.0 0.04906818649603944 0.022334942813424595 0.0 0.05212272473116968 0.026986771903991496 0.0 0.054912884686361005 0.03200325411235061 0.0 0.05740986357419385 0.03734457329234212 0.0 0.059590531501283434 0.0429572986308708 0.0 0.061438128308981696 0.04878413360173402 0.0 0.06294228209461276 0.05477056951906411 0.0 0.06409830252757646 0.060869301591238836 0.0 0.06490841525720421 0.06704892476772514 0.0 0.06538812386212234 0.07331128722388416 0.0 0.0655896402013578 0.0796376612421787 0.0 0.0 0.0 0.0 0.00026892691607527527 -0.0004630509549972858 0.0 0.0007783890936818322 -0.0009617824318916085 0.0 0.0015176692659177352 -0.001448138795335205 0.0 0.002523270376544441 -0.0018824556521195204 0.0 0.0038211844167410475 -0.0022301456900305655 0.0 0.005425731550705125 -0.0024560570129820566 0.0 0.007368505359291106 -0.0025253427688138007 0.0 0.009702328782717793 -0.0023950628040571888 0.0 0.012469638855760579 -0.002004658963737847 0.0 0.015617160088693176 -0.0012841395315763046 0.0 0.01902602995246346 -0.00017649217551123856 0.0 0.022600023030018245 0.001353667175969993 0.0 0.026271948786646862 0.0033164265397562253 0.0 0.02998645156348702 0.005698259676642645 0.0 0.033687500805549525 0.008468808430130858 0.0 0.037325413262311376 0.011603768300479465 0.0 0.040854480989280816 0.015095679047074031 0.0 0.04423308982643448 0.018952268418129425 0.0 0.0474228740795058 0.023183254088912357 0.0 0.0503868995536003 0.027790024371046114 0.0 0.05309174616534226 0.032751990230133005 0.0 0.05550937325034491 0.03802758557189592 0.0 0.05761780698003667 0.04356340566163673 0.0 0.05940143010040949 0.04930335383960921 0.0 0.060850912175666405 0.055194268153928354 0.0 0.061962744821540294 0.06118953187684381 0.0 0.06274105235574093 0.06725589224533904 0.0 0.06320471772126042 0.07338199872454501 0.0 0.06340241132450415 0.07952401800700275 0.0 0.0 0.0 0.0 0.00021232783514708043 -0.00040040535444635253 0.0 0.0006805225257501677 -0.0008323964424437434 0.0 0.0013856573504992704 -0.0012508842483116474 0.0 0.002353265454399201 -0.0016169114126596443 0.0 0.003605352037915404 -0.0018946940921072397 0.0 0.005149639135476142 -0.0020486301893690743 0.0 0.007010989559418248 -0.002045892634907856 0.0 0.00924388617677368 -0.0018465876414364415 0.0 0.011907574152805174 -0.001390527885592818 0.0 0.014961141191229193 -0.0006021635151062461 0.0 0.018275597817830065 0.0005810364470453194 0.0 0.02174439724848446 0.002188235455005232 0.0 0.025299960629242314 0.004216323270514413 0.0 0.028893786635925477 0.006638909883543218 0.0 0.03247497570968321 0.009422353457676473 0.0 0.035997870367806925 0.012547763854091112 0.0 0.03941881685212026 0.01601515530703916 0.0 0.042696534236224895 0.019838700783354847 0.0 0.045791940178110155 0.024031143163724063 0.0 0.04866710274089461 0.028592998554996835 0.0 0.051288505764259446 0.0335004868739474 0.0 0.05362881571399344 0.03871028485065346 0.0 0.05566718552094973 0.04416907140831336 0.0 0.05738916150510964 0.049821922566511856 0.0 0.05878653899112802 0.05561691950415645 0.0 0.05985707315626017 0.06150786027130905 0.0 0.06060651009610335 0.06745911505027279 0.0 0.061055619394474514 0.07344683052887815 0.0 0.0612483873150025 0.07941045020010609 0.0 0.0 0.0 0.0 0.00016070915567446042 -0.00033815198018850005 0.0 0.0005884073800581047 -0.0007032805128483585 0.0 0.0012587774822417398 -0.001053497643978087 0.0 0.002188213589378255 -0.0013507276024993455 0.0 0.003395057565827948 -0.0015584006758365449 0.0 0.004881146444254051 -0.0016405899377183878 0.0 0.006661964227163265 -0.001565522304719237 0.0 0.008791271645043421 -0.0012960254834483357 0.0 0.01134892803336281 -0.0007739346881788241 0.0 0.01430998410970547 8.425874321444557e-05 0.0 0.017534568342498287 0.0013491967795723821 0.0 0.020900602714714785 0.0030405211510648542 0.0 0.024338915648082514 0.00513633420384142 0.0 0.027810949463898192 0.007595011967460602 0.0 0.03127226753941291 0.010385167504679084 0.0 0.03468058695128125 0.01349626669234609 0.0 0.03799453023707063 0.016935722900632992 0.0 0.04117274777969841 0.020724835120435034 0.0 0.04417515507198368 0.024878958195331216 0.0 0.04696297360676953 0.029396086789159375 0.0 0.049502601870797136 0.034249174601962626 0.0 0.05176749283482369 0.03939298742245649 0.0 0.053737877858252875 0.04477446448593924 0.0 0.055400444271098345 0.05033984593427396 0.0 0.056748075622581225 0.05603837042551841 0.0 0.05777968266361673 0.061824090308082065 0.0 0.05850233875931776 0.06765867157789968 0.0 0.05893738467251778 0.07350755902210299 0.0 0.05912490138067974 0.07929833468866554 0.0 0.0 0.0 0.0 0.00011381160610405751 -0.0002762418764554789 0.0 0.0005021474396998569 -0.0005746521270510254 0.0 0.0011374805278094023 -0.0008564702039787141 0.0 0.0020284769550085054 -0.0010846317129518867 0.0 0.003190934797745983 -0.0012224100720116785 0.0 0.004621056394103656 -0.0012329503372698059 0.0 0.006323033446829558 -0.0010851357426525014 0.0 0.008346873801976813 -0.0007449825852829993 0.0 0.010793389551478122 -0.0001567544521693665 0.0 0.01366427730012626 0.0007746937622047328 0.0 0.01680412942096861 0.0021333930506077484 0.0 0.020068743523814114 0.003917732686363789 0.0 0.0233878471034921 0.006079775103987338 0.0 0.026737353701640966 0.008567030264162445 0.0 0.030078691496912512 0.01135778690225723 0.0 0.03337317189009244 0.014448691613464104 0.0 0.036581387511123636 0.017856959998447473 0.0 0.03966150562660482 0.02161086471178579 0.0 0.042572258316504984 0.025726991620878034 0.0 0.04527410866150331 0.030199766925371237 0.0 0.04773351356015024 0.034998426856592726 0.0 0.04992476911147088 0.04007597201594205 0.0 0.0518291485544148 0.045379750103293065 0.0 0.053434427061746656 0.05085718429927793 0.0 0.05473450450537402 0.0564586199398901 0.0 0.05572930624290453 0.0621382370915155 0.0 0.056426885306432945 0.06785492066514058 0.0 0.05684823480957771 0.07356518423006153 0.0 0.0570300474403142 0.07918850819781813 0.0 0.0 0.0 0.0 7.134425541885158e-05 -0.00021459348678046122 0.0 0.0004218682584383384 -0.0004468109163037853 0.0 0.001022295547877543 -0.0006603995983175732 0.0 0.0018744798459997664 -0.0008194973844758246 0.0 0.0029937404012055895 -0.0008881076925468705 0.0 0.004370325319449816 -0.0008269395912788121 0.0 0.0059961625435492934 -0.0006058547810184733 0.0 0.007913679857172683 -0.00019550170559950281 0.0 0.010240623768650817 0.00045864333741134225 0.0 0.013024749110846895 0.0014687445776102688 0.0 0.016085705448874325 0.002940554484248398 0.0 0.019248909912316023 0.004828805675299259 0.0 0.022445560727202787 0.00705051986898547 0.0 0.025672295949192226 0.009555438518225535 0.0 0.02889341270365483 0.012340815076390295 0.0 0.03207515859043146 0.01540426863979159 0.0 0.035179107149437616 0.018778341271061854 0.0 0.03816252644480027 0.022497045198671572 0.0 0.04098292467741092 0.026575607792049146 0.0 0.043600006134633676 0.03100463351891617 0.0 0.04598059894417371 0.03574870207218735 0.0 0.04809986294573443 0.04075958063696362 0.0 0.04994009223270991 0.0459851323466247 0.0 0.051490060113808536 0.051374016424193536 0.0 0.052744574057856146 0.05687767725084664 0.0 0.05370440182814881 0.06245033415417085 0.0 0.054378163157158536 0.06804832180824519 0.0 0.054786079624875375 0.07362088996373745 0.0 0.05496153057776508 0.07908196957774831 0.0 0.0 0.0 0.0 3.308632420493102e-05 -0.00015345336999306246 0.0 0.0003476448882615993 -0.00032013703785768613 0.0 0.0009134907716186371 -0.00046605625781366073 0.0 0.0017271742767506352 -0.0005566376753218232 0.0 0.0028029935277010367 -0.0005570695220106178 0.0 0.004130397786086256 -0.00042666928261239894 0.0 0.0056841917991050876 -0.000132825181385604 0.0 0.007492206375012266 0.0003513861088871303 0.0 0.009694764755437034 0.0010763144372078022 0.0 0.01238503276384091 0.0021868664702167063 0.0 0.015370099200762374 0.003793179806511074 0.0 0.018436946399056714 0.0057819958875635884 0.0 0.021511738868058454 0.00804651476671962 0.0 0.024614577117941634 0.010563339607368872 0.0 0.027715806163110274 0.01333174278542299 0.0 0.030786158560532774 0.016361685831948906 0.0 0.033787419046689096 0.019699637798431757 0.0 0.03667547892010913 0.023383558623546324 0.0 0.03940657171624276 0.027425802231246944 0.0 0.04193990537777875 0.03181145462508575 0.0 0.04424290550429674 0.03650067451238367 0.0 0.04629166859590372 0.04144428133263492 0.0 0.04806944562142236 0.04659091063568496 0.0 0.049565907487830206 0.05189052965440018 0.0 0.0507766463727469 0.05729566707159174 0.0 0.05170307917159078 0.06276061418718318 0.0 0.05235406543194697 0.06823949311091854 0.0 0.052748712623067795 0.07367587391278876 0.0 0.05291730265746203 0.0789798791566323 0.0 0.0 0.0 0.0 -1.113023552019785e-06 -9.29919336932574e-05 0.0 0.00027952545347371727 -0.00019490718609886472 0.0 0.0008112596075982514 -0.0002739844006626975 0.0 0.0015871725126027848 -0.0002969728144170204 0.0 0.0026184558228072676 -0.00023045091756883476 0.0 0.00390201909303749 -3.476779455314963e-05 0.0 0.005389338300823135 0.0003304072295466963 0.0 0.0070842921924076825 0.0008943097079186262 0.0 0.009158211974619763 0.0016996203192123352 0.0 0.011743002882411816 0.0029430453234427084 0.0 0.014653220404422095 0.004704338568409148 0.0 0.01763055736325389 0.006781691779868246 0.0 0.020586002494056885 0.009067295042740148 0.0 0.02356337193062471 0.011592154576358099 0.0 0.026545456127471515 0.014328823073586643 0.0 0.02950593219406934 0.017319963365246733 0.0 0.03240614705032802 0.020620678767958353 0.0 0.035200120661799957 0.02427062834011873 0.0 0.03784277414401352 0.028278287496045065 0.0 0.04029324413717543 0.03262080620528502 0.0 0.042519736206254585 0.03725482938057745 0.0 0.0444993786137863 0.04213041416935824 0.0 0.04621628881279253 0.047197306127214046 0.0 0.04766092737934743 0.05240686391814283 0.0 0.04882953853270183 0.057712688428892496 0.0 0.04972398322690453 0.0630692524930431 0.0 0.05035309063209513 0.06842887837102579 0.0 0.050734570872943606 0.07373097341844753 0.0 0.05089590240115653 0.07888305678456811 0.0 0.0 0.0 0.0 -3.144080069957422e-05 -3.343363816646832e-05 0.0 0.00021752825320503597 -7.168536880700372e-05 0.0 0.0007159835773679648 -8.508469081168188e-05 0.0 0.001454695767149446 -4.1926411148815905e-05 0.0 0.0024410846360132556 8.928399768674605e-05 0.0 0.0036828450162550218 0.0003480614509599025 0.0 0.005118000385009787 0.0007792227672939657 0.0 0.006712202930125758 0.0014226126420440167 0.0 0.008628060356887558 0.0023403945802516176 0.0 0.011126124767032381 0.0037538876273737667 0.0 0.013959823248062869 0.005658663501863069 0.0 0.016834357172396498 0.007816496631999832 0.0 0.019665685715003538 0.010125070133737294 0.0 0.022517604127873275 0.012634164548504504 0.0 0.02538199750307058 0.0153295782507286 0.0 0.02823452973850292 0.018276798191349166 0.0 0.03103518748284491 0.021541052043800593 0.0 0.03373594122992483 0.025159858162227502 0.0 0.036290652152738044 0.02913435099293271 0.0 0.03865877081980251 0.03343407539240323 0.0 0.04080962645897918 0.0380120833682546 0.0 0.042721316700145284 0.042818663931391214 0.0 0.04437874397527679 0.04780480925513565 0.0 0.04577304082889712 0.05292334721953486 0.0 0.04690095676134875 0.058129044341433296 0.0 0.04776461176788753 0.06337667644016504 0.0 0.04837257060889065 0.06861730465896405 0.0 0.04874099972211009 0.07378746967250664 0.0 0.048894700283909735 0.0787928652611595 0.0 0.0 0.0 0.0 -5.7990350754111776e-05 2.511059912025136e-05 0.0 0.00016166298821651608 4.927598666758965e-05 0.0 0.0006278115218281994 0.00010022630473889507 0.0 0.001329837275183811 0.00020775504275123016 0.0 0.0022712313297992446 0.0004010081648803908 0.0 0.003471611942000422 0.0007200121091535676 0.0 0.004870166113406189 0.0012081137696268018 0.0 0.006383939964505547 0.0019262758477640442 0.0 0.00811677455025523 0.0029943102424078317 0.0 0.0105386929541687 0.0046205401598159125 0.0 0.013290185766512336 0.006659322016982011 0.0 0.016048230771587162 0.008889379121379958 0.0 0.018750308484024123 0.011220446007524271 0.0 0.021476914573587462 0.013686315783164975 0.0 0.024225473039083862 0.016331808174181665 0.0 0.026972100957243964 0.019231183105357937 0.0 0.029674539964713503 0.022460893243629924 0.0 0.03228268549089702 0.026052067772670176 0.0 0.03474970147001809 0.029994865062562156 0.0 0.03703579412525139 0.03425196340932003 0.0 0.03911176238750005 0.0387729464989723 0.0 0.04095655357746353 0.04350940730086879 0.0 0.04255577569788254 0.04841368834106996 0.0 0.04390110887194419 0.053440173135046856 0.0 0.044989655111681744 0.05854491212504724 0.0 0.0458236200961994 0.0636831250243659 0.0 0.04641109180001861 0.06880519479348188 0.0 0.04676659219499686 0.07384599680428405 0.0 0.046912314686036405 0.07871000148056558 0.0 0.0 0.0 0.0 -8.095077490314771e-05 8.242051425861325e-05 0.0 0.00011195156479897977 0.00016758108575325723 0.0 0.0005468796977299927 0.0002812357468973399 0.0 0.0012127176447309285 0.0004504164778097364 0.0 0.0021091050743226873 0.0007028470814806275 0.0 0.003265388206037645 0.0010716414237595593 0.0 0.004633072074605654 0.0015931978996051644 0.0 0.0061033453222242755 0.0023663231470924446 0.0 0.0077049049573474585 0.003611932237911307 0.0 0.009951994312499289 0.005516942844976714 0.0 0.012596873598681706 0.007755801188152542 0.0 0.015262334741832551 0.010040757921486114 0.0 0.017842278597143962 0.012332839752299655 0.0 0.020441283326308242 0.014745597050896096 0.0 0.023076863432763554 0.017327226750376536 0.0 0.025719444759560617 0.020181643219664515 0.0 0.02832440787416419 0.023381833588831984 0.0 0.0308398351552244 0.02694899393258471 0.0 0.03321864165435295 0.030862510040893035 0.0 0.03542264891919449 0.03507592606741827 0.0 0.03742416591444065 0.03953866055883079 0.0 0.03920283869879622 0.04420354602805668 0.0 0.04074489639361751 0.049024580486790856 0.0 0.04204242155890153 0.053957852492392225 0.0 0.04309270785151847 0.05896075460488352 0.0 0.04389790345410137 0.06398918448975788 0.0 0.044465465388871514 0.06899344510480757 0.0 0.044808172224075515 0.07390781820924604 0.0 0.04494567183233677 0.07863594354951046 0.0 0.0 0.0 0.0 -0.00010039396501876866 0.00013850901750576361 0.0 6.840260134547476e-05 0.0002832477806814485 0.0 0.0004733130176927793 0.0004579734902796186 0.0 0.0011032206824524444 0.0006863178268129584 0.0 0.0019548395901038797 0.0009949872563480794 0.0 0.0030631133421568746 0.001405795545700795 0.0 0.004399188160663422 0.001946845129582488 0.0 0.00585782130711204 0.0027508075979314423 0.0 0.007396003057172875 0.004136046494517596 0.0 0.009382581153164309 0.006321914695566692 0.0 0.01187550490223344 0.008861514983846956 0.0 0.01446327898110334 0.011245994149427369 0.0 0.016940631419660724 0.013460314737004065 0.0 0.01941174081476358 0.01580418939470384 0.0 0.021937009355554624 0.01831400097319772 0.0 0.024477292669753393 0.021127736377445503 0.0 0.026985076360141923 0.02430488133407593 0.0 0.029407078160698576 0.02785252719114023 0.0 0.03169676684866296 0.0317384294157277 0.0 0.03381842633769129 0.03590684489460964 0.0 0.0357457201978548 0.040309893069029115 0.0 0.03745890301171023 0.04490156974966218 0.0 0.038944701083547986 0.04963785758435511 0.0 0.0401954479132962 0.054476686280156436 0.0 0.04120847876062908 0.05937684573039928 0.0 0.04198574224709675 0.06429517159204895 0.0 0.042533932150530376 0.06918248152607243 0.0 0.042864008235483204 0.07397351286052384 0.0 0.04299307032855039 0.07857141976781859 0.0 0.0 0.0 0.0 -0.00011644204715672031 0.0001935262018577442 0.0 3.103112304703722e-05 0.0003965296035644072 0.0 0.00040742062516201224 0.0006308892040926458 0.0 0.001000934125113936 0.0009170797066009399 0.0 0.0018087339046702932 0.0012789378373952026 0.0 0.0028630576056110557 0.0017358438912595312 0.0 0.004152171797926835 0.0023185119259612483 0.0 0.005607325601602804 0.0031237371841601825 0.0 0.0071602032857402105 0.004418514075800932 0.0 0.008894996012427454 0.006682045986589039 0.0 0.01113673869973673 0.009689610519133642 0.0 0.013615523582092563 0.012410183919086267 0.0 0.016041235283321516 0.014607389562068494 0.0 0.018391413926089326 0.016839960142986825 0.0 0.020807959263791545 0.019290763664706792 0.0 0.023247454641778 0.022068868684045954 0.0 0.025657305409769057 0.02523226389014191 0.0 0.027983731870053152 0.028767510511696154 0.0 0.030182587492951315 0.03262473075766217 0.0 0.03222121670298771 0.03674665240925223 0.0 0.03407404423416939 0.04108803711887899 0.0 0.035722042468049414 0.045604504914186675 0.0 0.037152194069465586 0.0502543233468582 0.0 0.03835692322054739 0.054997327401907825 0.0 0.03933349356677394 0.0597937808170262 0.0 0.04008350026556783 0.06460174890725781 0.0 0.04061277837832322 0.06937314054803777 0.0 0.040930463734058065 0.0740441951138413 0.0 0.04105091339771751 0.07851788793074252 0.0 0.0 0.0 0.0 -0.00012901181745657035 0.0002477774184833285 0.0 7.041528774698678e-08 0.0005083000855839374 0.0 0.00034938092374536475 0.0008013284486364789 0.0 0.0009062953743593283 0.0011444104028423736 0.0 0.0016701594149502448 0.0015572046543988094 0.0 0.0026671077402377927 0.0020603487811948467 0.0 0.0038986273852467555 0.00268442103602753 0.0 0.00534547602135483 0.003452310408513525 0.0 0.006948549522431763 0.004541556393823622 0.0 0.008486306138654604 0.006877692671958682 0.0 0.010448608573190724 0.01019272587707678 0.0 0.0127749933459314 0.01331313161954494 0.0 0.015143673384785387 0.01572897938640441 0.0 0.01738294423475781 0.017854712475561224 0.0 0.019692620737696603 0.020251864710904517 0.0 0.022031912824684627 0.023007067337734066 0.0 0.024341587066824967 0.0261687925931289 0.0 0.026569270221676485 0.029696315980203815 0.0 0.028675237723603315 0.033523103474056265 0.0 0.0306296449239083 0.037596681711848004 0.0 0.03240745508867972 0.04187405234953613 0.0 0.033990268825346795 0.04631311468303689 0.0 0.0353651267072096 0.05087459838456988 0.0 0.036524388285673226 0.0555202859047991 0.0 0.03746511747008123 0.06021201821884616 0.0 0.03818842785075942 0.0649093641008436 0.0 0.03869922035020218 0.06956590721024658 0.0 0.039004757323291166 0.07412044522166374 0.0 0.039116525706365604 0.07847623477542032 0.0 0.0 0.0 0.0 -0.00013795531967602344 0.0003017375321720955 0.0 -2.4106512278035173e-05 0.0006199314649812984 0.0 0.0002994475945924205 0.000971400539684216 0.0 0.0008200472337799579 0.0013708760053632706 0.0 0.0015380846268645827 0.0018336452841551986 0.0 0.002478440027881388 0.002375621703517871 0.0 0.0036508003512140466 0.0030015391957252434 0.0 0.0050663766488720135 0.00368001607139923 0.0 0.00668621566100305 0.004652493753866189 0.0 0.008144889886276697 0.007391831013716587 0.0 0.009918150981015526 0.010327840909736203 0.0 0.012034417576993427 0.01361703402578241 0.0 0.014247741362363172 0.016753073321783437 0.0 0.0163902068279052 0.018853600915252247 0.0 0.018595429514031113 0.02118847796529949 0.0 0.02083363645589001 0.023945670686018966 0.0 0.023038622634419238 0.02712190642794033 0.0 0.025162929818681987 0.030642203643639402 0.0 0.027173497033180793 0.03443601732108945 0.0 0.029041723344806793 0.03845885124095227 0.0 0.030743523707725495 0.0426693203748327 0.0 0.03226069991807847 0.04702850687216409 0.0 0.03358023207941148 0.05149958706230309 0.0 0.034694268625012195 0.05604630601230546 0.0 0.03559951792794387 0.060632225673531395 0.0 0.036296526229064374 0.06521866011880521 0.0 0.03678921300071581 0.06976146441162304 0.0 0.037082839865792847 0.07420306771161513 0.0 0.03718602234918279 0.07844771724662815 0.0 0.0 0.0 0.0 -0.00014263282877865772 0.0003568755973209261 0.0 -4.055365658959888e-05 0.0007340970902067566 0.0 0.00025856922744743496 0.001145793223852841 0.0 0.0007426869414687442 0.0016030845107280372 0.0 0.0014129691239241158 0.002117688876965717 0.0 0.0022927524915761855 0.0026969792424557885 0.0 0.0033960763266453107 0.0033247223186486058 0.0 0.00474409751519515 0.0039458360021372985 0.0 0.006331260978505313 0.0048475322394893675 0.0 0.007889089158951826 0.007735438599695151 0.0 0.009517304507533488 0.010432497659616513 0.0 0.011349749300003795 0.014001969476229392 0.0 0.013356261164365401 0.017749711447448253 0.0 0.015416146891972035 0.019801693841981733 0.0 0.017525043967272554 0.022105997387830475 0.0 0.0196557464556769 0.024898106721554163 0.0 0.021748616913185245 0.02809808234867625 0.0 0.02376463875306885 0.03160826351963608 0.0 0.025676160984796442 0.03536626542216474 0.0 0.02745560242398427 0.03933504074070473 0.0 0.02907964858344613 0.04347543046440376 0.0 0.030530088664050367 0.04775200991144334 0.0 0.0317937014795929 0.052130400290291715 0.0 0.03286227843622894 0.05657634193953565 0.0 0.03373203111258603 0.0610552247046833 0.0 0.034402842828653836 0.06553032553991996 0.0 0.0348776615852094 0.06996032095293821 0.0 0.03515979431909759 0.07429265247415193 0.0 0.035254407077535785 0.07843347053961353 0.0 0.0 0.0 0.0 -0.00014242423799467376 0.000414443888179924 0.0 -4.838186940038064e-05 0.0008532085299986956 0.0 0.00022761375073626706 0.0013286475977036315 0.0 0.0006747404280532185 0.0018469773660314734 0.0 0.0012953063181584637 0.002417858211296591 0.0 0.0021069244221874803 0.0030386613972088463 0.0 0.003125122133255012 0.0037002560049215647 0.0 0.004360759381490329 0.004361864410387536 0.0 0.005855279690645214 0.005209634090024396 0.0 0.007718520391416092 0.00756045078635348 0.0 0.00922037262342982 0.010766059634992007 0.0 0.010696735586479518 0.014969892892381731 0.0 0.012479099298126961 0.018762973184784898 0.0 0.01446570175144555 0.020671839940968845 0.0 0.01648865050248248 0.02301070728117266 0.0 0.01850078161702732 0.025875688337504164 0.0 0.02047180384443053 0.029102577394056372 0.0 0.02237435128015349 0.032597102248699994 0.0 0.024182270336698824 0.036316164687970214 0.0 0.02586975860883617 0.0402268356902748 0.0 0.027413659629120346 0.04429373020362226 0.0 0.02879570218469731 0.04848475610902535 0.0 0.030002308855700856 0.05276799032137684 0.0 0.03102477068459112 0.05711121327980712 0.0 0.031858675378082915 0.06148171890084917 0.0 0.032503142382874245 0.065844945198101 0.0 0.03296019588149758 0.07016289905658689 0.0 0.03323137448391335 0.07438964724999278 0.0 0.0333174101597273 0.07843443887302745 0.0 0.0 0.0 0.0 -0.0001347270268352983 0.00047667073107748355 0.0 -4.432098104870679e-05 0.0009843532343630458 0.0 0.00020931324712972 0.0015303981367865232 0.0 0.000619336568294002 0.0021194615331547057 0.0 0.0011877676955572005 0.002759306274873844 0.0 0.0019274656780950423 0.0034480230457551633 0.0 0.0028536605592663416 0.004187402392322407 0.0 0.003970518712044381 0.004976071306862039 0.0 0.005342670041898043 0.005931479515679004 0.0 0.0073046960086721536 0.0077808483760740685 0.0 0.008971483562665587 0.011182641992374984 0.0 0.010324774631853708 0.015717738559971117 0.0 0.011784429973877008 0.01953433985672224 0.0 0.013597375774373407 0.02147246692845518 0.0 0.015495471137000831 0.02394554256788733 0.0 0.017371235920087935 0.026895621990527942 0.0 0.019209940973243227 0.030140590998208233 0.0 0.020992136233848588 0.0336133058656774 0.0 0.022691297893115765 0.03728889051344948 0.0 0.024282245408109446 0.041137006847846824 0.0 0.025742304037582264 0.04512666523262316 0.0 0.027052979608024205 0.04922890898615125 0.0 0.028200278997313154 0.05341427924527419 0.0 0.02917489808917946 0.057652600229992204 0.0 0.029971727774426717 0.06191311606822969 0.0 0.030589083115713213 0.06616360986750144 0.0 0.03102795561338246 0.07036983259091123 0.0 0.03128837193142755 0.07449387076219001 0.0 0.03136671283512809 0.07845202548672564 0.0 0.0 0.0 0.0 -0.00011764167976062417 0.0005453196979494208 0.0 -2.6244279875868217e-05 0.0011315058926264637 0.0 0.00020572111178396445 0.0017573226976998133 0.0 0.0005786676216571316 0.0024299892093155194 0.0 0.001092820271756761 0.003155848924646387 0.0 0.0017587645681215595 0.0039470191891566595 0.0 0.002590569476843666 0.0048119139271250375 0.0 0.003598056933571266 0.005802687170684751 0.0 0.004834165413802647 0.0070582896406720394 0.0 0.006561584114244441 0.008736725793951598 0.0 0.008705169517249978 0.011705386912522021 0.0 0.010258652872664361 0.01603431546227109 0.0 0.011327505810080692 0.02000497637890724 0.0 0.012836799993080173 0.022229869696060753 0.0 0.014549989790036643 0.02493357669054945 0.0 0.016268369326613148 0.027965793917587176 0.0 0.01796417375849621 0.031214805322287317 0.0 0.01961836788865816 0.03465930181423292 0.0 0.021203129893944708 0.03828622461692046 0.0 0.02269217683753122 0.04206714924298037 0.0 0.024063893406354394 0.04597567470249402 0.0 0.025299423571773685 0.04998577759476856 0.0 0.026384335666787606 0.05407045628059015 0.0 0.027308664886222203 0.05820156168136348 0.0 0.0280665629709608 0.062350310571754324 0.0 0.028655543647234293 0.06648698012603671 0.0 0.02907549704773444 0.07058143831496741 0.0 0.02932520927941852 0.07460521024149458 0.0 0.029396886164479802 0.07848674878422299 0.0 0.0 0.0 0.0 -8.465978938941045e-05 0.00062703278567104 0.0 1.1998550892677747e-05 0.0013030492839919677 0.0 0.00022413218020014613 0.0020250848981721034 0.0 0.0005598455335280868 0.002798328604598293 0.0 0.001021176691076651 0.0036349745557873125 0.0 0.001614270493228272 0.004555783184032705 0.0 0.0023549163180444643 0.0055855534375337 0.0 0.0032630705079318423 0.00679966381051011 0.0 0.004378153722821399 0.00832810135298231 0.0 0.005866112560507938 0.010164527891474729 0.0 0.00808923723420257 0.012979970628261601 0.0 0.009896212810549934 0.016834364435167976 0.0 0.011002723903967313 0.020540687169584397 0.0 0.012197207411561996 0.02312216306821624 0.0 0.013657751509287466 0.026017758580174348 0.0 0.015194050496009028 0.029092809069918117 0.0 0.016737826872132364 0.03232954803588568 0.0 0.018255744530240873 0.03573938828430774 0.0 0.01971856082820486 0.03931193003449419 0.0 0.02109885366249895 0.04302086098493429 0.0 0.022375639068103918 0.046844178385921205 0.0 0.023530110556008822 0.05075866720996046 0.0 0.024547356111143517 0.05473966247438041 0.0 0.025416758045165376 0.05876099411389134 0.0 0.02613175260338866 0.06279578497649682 0.0 0.026689202037682866 0.0668167270453787 0.0 0.02708863882680527 0.07079816409865163 0.0 0.027327773594738463 0.07472336468361794 0.0 0.027392137099095954 0.0785381749292633 0.0 0.0 0.0 0.0 -3.0549513850471655e-05 0.0007233773575944487 0.0 7.502133278122757e-05 0.0015049468804528982 0.0 0.00026851557912963453 0.0023403724632111195 0.0 0.0005673768963651468 0.003232649603396981 0.0 0.000978086563268867 0.0042047284355962045 0.0 0.001500809787878283 0.005279920552291886 0.0 0.0021546424671774296 0.006505333562703407 0.0 0.0029704360502560362 0.007948612207667231 0.0 0.003981997860465333 0.009695423097180488 0.0 0.005291645434340651 0.011921857017238807 0.0 0.007183425187523854 0.014921212635943589 0.0 0.009186811514073441 0.01819884557688369 0.0 0.010693141896779786 0.021296435165765275 0.0 0.011638747607890094 0.024199950195829593 0.0 0.012812683383782261 0.02720456403805126 0.0 0.014148455245490148 0.030277391950975136 0.0 0.015532093277407115 0.03348686754277639 0.0 0.016905999121834044 0.03685566347589922 0.0 0.01823882046615532 0.04036782780084649 0.0 0.0195028150409484 0.04399999577366107 0.0 0.02067698959486982 0.04773408920326867 0.0 0.02174313131599218 0.05154951237247718 0.0 0.022686014523612096 0.05542380963173773 0.0 0.023494432099936645 0.05933272513210887 0.0 0.024161133625557725 0.06325120302018954 0.0 0.024682374018122278 0.06715422920207324 0.0 0.025057743353369265 0.07102068113653531 0.0 0.02528557568122291 0.07484663803575199 0.0 0.025343192957782465 0.07860648660984154 0.0 0.0 0.0 0.0 5.917186561114012e-05 0.0008349511853467582 0.0 0.00017526852561942078 0.0017529379355679057 0.0 0.00034797921704179545 0.0027158429890673185 0.0 0.0006125363038674558 0.003747910222176046 0.0 0.0009747474708596894 0.004873444890496685 0.0 0.001433326565054036 0.0061244561843419205 0.0 0.002004405494930616 0.00755064358774734 0.0 0.002722786087818911 0.009213913728278705 0.0 0.003634803702381963 0.011198063916467937 0.0 0.004813515611515634 0.013683424588429945 0.0 0.006477200241360712 0.016694051117575794 0.0 0.00842011817805012 0.019702866581922326 0.0 0.01004325133652291 0.02256323338333432 0.0 0.011001032619441896 0.025511491986711106 0.0 0.01198753032657683 0.028484099861242274 0.0 0.01313075480770817 0.03151700071482392 0.0 0.01434880783006947 0.03469101548760958 0.0 0.01557349632280111 0.03801258977092303 0.0 0.01676789931576174 0.04145776482238481 0.0 0.01790664569072476 0.045008654829474554 0.0 0.018968094959201563 0.04864987322733183 0.0 0.019935232503113083 0.052362951734127625 0.0 0.020793484681339028 0.056127581853707795 0.0 0.021531269167699728 0.05992131723078902 0.0 0.02214064456150021 0.06372084106346304 0.0 0.022616788019999036 0.0675033377361094 0.0 0.02295787973912438 0.07125115604362176 0.0 0.02317042808516661 0.07496889312328092 0.0 0.02322777990141704 0.0786927166206991 0.0 0.0 0.0 0.0 0.00020250258090919777 0.0009824251140852815 0.0 0.0003163526957866903 0.0020524564128353213 0.0 0.00047013652863629025 0.0031607076518893997 0.0 0.0007012350222737828 0.00435200102448089 0.0 0.0010168756720111416 0.005647115787343587 0.0 0.0014170792149402847 0.0070867333179818115 0.0 0.001910128152339905 0.00871525871647553 0.0 0.0025286534619039314 0.010595970443236674 0.0 0.003336820866164331 0.012825394088507793 0.0 0.004398866418815175 0.015453661063303833 0.0 0.00590905607063151 0.018366365042702545 0.0 0.0076296513974602265 0.02132144406746324 0.0 0.009164021471526347 0.024183257354145088 0.0 0.010280135692303813 0.02698273318238103 0.0 0.01117652399510601 0.029836970831406847 0.0 0.01214130570628454 0.03281237440370553 0.0 0.01318852007135326 0.03594518109389244 0.0 0.014259597234192987 0.03921191902589069 0.0 0.015309333732022357 0.04258356114223648 0.0 0.016314296817384877 0.04604909381979308 0.0 0.017252536592223356 0.04959430308936473 0.0 0.018108318190968253 0.05320240683982966 0.0 0.018868737280745874 0.05685483182570432 0.0 0.019522909030753925 0.06053077658327485 0.0 0.02006279727505171 0.0642085421352142 0.0 0.020482454420494907 0.06786747164942641 0.0 0.020777486631203428 0.07149314736653156 0.0 0.02095716599602935 0.07509287815618576 0.0 0.021006349760992266 0.07877933156786707 0.0 0.0 0.0 0.0 0.0004322726356057971 0.0012065384710823292 0.0 0.0005030586908092096 0.0024112633925646187 0.0 0.0006483107559483482 0.00369077567690937 0.0 0.0008430222575625224 0.005057685974530283 0.0 0.0011136495444256577 0.006536005992468582 0.0 0.0014596322858572669 0.008160550484835119 0.0 0.0018807422053648973 0.009990776714705015 0.0 0.002404403759061943 0.012102316850285367 0.0 0.003090604100128856 0.014549251410961403 0.0 0.003987429775103871 0.01730287464703072 0.0 0.005264817302310418 0.020230318829849506 0.0 0.00682684288629001 0.02308560207878431 0.0 0.008342034759756572 0.025789527213683248 0.0 0.009498645385570163 0.028458183968908375 0.0 0.01037342152824546 0.03122671759395678 0.0 0.011180969372055751 0.03416545458623889 0.0 0.012051968879528472 0.037254862814187883 0.0 0.012966165947823103 0.0404562691035112 0.0 0.013869357627475263 0.04374808584471255 0.0 0.01473308822376269 0.0471249946447805 0.0 0.01553736421029502 0.05057201334281254 0.0 0.016266767069005334 0.05407376205549676 0.0 0.01691102975672821 0.057612287390073166 0.0 0.017462705759404763 0.06116815738565045 0.0 0.017915453485571508 0.064721092147264 0.0 0.018263087819702487 0.06825265929768823 0.0 0.01849843246820752 0.07175327799869294 0.0 0.018601389130172535 0.0752251858039528 0.0 0.018604956977288985 0.07883148422623909 0.0</DataArray>
<DataArray Name="strain" NumberOfComponents="3" format="ascii" type="Float32">0.0 -0.0025180632452645063 0.0011141999274448967 0.0007121258878326014 -0.001870717196626069 0.00014990235184547367 0.0004700465637288197 -0.001780481056610854 0.0004993894390944498 0.0005232581778617704 -0.0018146933746313529 0.0007089952443100492 0.00046959249441104727 -0.001794195667327525 0.0009707847517826942 0.00042233787657750335 -0.0017914931176075278 0.0012399186758209493 0.0003702693490112742 -0.001784032712197299 0.0015110957615115527 0.0002799838882895575 -0.0017399017637941064 0.001793874835552454 0.0001812625715619156 -0.0016470400307106291 0.002024337678937152 6.504264846702527e-05 -0.001506372954244866 0.0021789294806969614 -6.360498694121808e-05 -0.001327654859281692 0.0022557955870429656 -0.0001871331019001124 -0.0011386321468144205 0.0022636586208873047 -0.0003000096667471197 -0.0009463419933890029 0.0022118127751538795 -0.00039203334510206495 -0.0007527709909363536 0.0021001628049476797 -0.00046735574950643004 -0.0005797419984725368 0.001950566076862105 -0.0005298876186149853 -0.0004298551213479194 0.0017852327094914128 -0.0005837007234856736 -0.0003010653995891635 0.0016230816132446777 -0.0006308593570450993 -0.00019640766037965635 0.001475047786218598 -0.0006712869158128527 -0.00011073814597994946 0.0013358237793753465 -0.0006993444113402303 -3.2840931954852826e-05 0.0011868204110058055 -0.0007067951520801294 2.9640203108804997e-05 0.0010244294576086334 -0.0006925579714639404 7.518581662843693e-05 0.0008531473220547643 -0.0006600493915166067 0.00010778791300508628 0.0006810256564372591 -0.0006130402338562907 0.00012606456032190905 0.0005203875162849196 -0.0005534667793736514 0.0001330549102767642 0.00038414019040669425 -0.0005095883293231851 0.0001332306309419773 0.00027886414732909953 -0.00046138189975873656 0.00012642202023455118 0.00019765696445632713 -0.00047732099119680155 0.0001471796041108142 0.00011139888460618058 -0.00048511423023597094 0.00010403463761349263 0.00014388003923853263 -0.00026933049714028545 0.00011384288733673475 -0.0002312640941527531 0.0 -0.001861294418980117 0.00088490125580972 0.0006108611455330783 -0.0018738466995811035 0.0003623807001474104 0.0005192546225846733 -0.0017888597154441378 0.000490679033950349 0.0005239251948268454 -0.0017513347383564322 0.0006821391125524932 0.00048682259372290204 -0.0017445347981463696 0.0009247981037028243 0.0004430116047087398 -0.0017214206590054626 0.0011640737621909539 0.00038845080714280944 -0.0017032925561086803 0.0014188819862643776 0.0003040492017290942 -0.0016388454069437494 0.0016876355253333465 0.0001973954219903814 -0.001529794426452985 0.0019239105865241932 7.072239460825282e-05 -0.0013808571017164739 0.00209120684309889 -6.730386192536561e-05 -0.001202936724450209 0.002174657642686475 -0.00019538895331319 -0.0010173565230773684 0.0021797163378867576 -0.0003093077695642578 -0.0008282277836228593 0.0021197347178936476 -0.00040182349489053387 -0.0006425898145246377 0.002002502828251636 -0.00047562107439638734 -0.00048350657065629736 0.0018529673018324864 -0.0005335860783752359 -0.00035104946168491944 0.001693348013580301 -0.0005807108298302478 -0.0002394050840482491 0.0015395367567301592 -0.0006207614009699491 -0.00014778360888806873 0.0013972319176730214 -0.0006540398768791061 -6.83321609832449e-05 0.0012564886173424556 -0.0006773805009945861 6.939997807979548e-06 0.0011008753607802024 -0.0006835942676463747 6.719844360583704e-05 0.0009310680620735355 -0.0006700323260262313 0.00010948981463299728 0.0007551247979245925 -0.0006381648197469553 0.00013609807616824648 0.0005829265908737474 -0.0005908287064974593 0.00014879253758290356 0.0004257735325280722 -0.0005304211598052243 0.00014629648865577272 0.00029877520795066795 -0.00046871386777668986 0.0001372286910653886 0.000197513506629365 -0.00041574146155782046 0.00012424046939940592 0.00012220067516487487 -0.0003573177418068757 0.0001250035451451914 4.170101456767153e-05 -0.0002531936380637326 7.678099244502745e-05 -5.9321135738296386e-05 -9.481854596989775e-05 0.00033809359384365245 -0.0006039287955307885 0.0 -0.0016101214971132303 0.0007096755076118938 0.0005186906573193442 -0.0017574841355684175 0.0005079656642109606 0.000555880885716875 -0.0017343008976377103 0.0004810576471103173 0.000524170735063582 -0.0016901266517334525 0.0006596962537247959 0.0005026979763182503 -0.0016734684583885051 0.0008739295159723839 0.0004598192173653516 -0.001645455227652685 0.0010922571596223719 0.0004061302819952598 -0.0016134125782636581 0.0013264412565563925 0.00032631414614838535 -0.0015381065218806758 0.0015849424027737197 0.00021353423011028546 -0.0014169440575192782 0.0018272363901692139 7.70139104309623e-05 -0.0012582394769859442 0.0020053461286370826 -7.068069920189435e-05 -0.0010770577867400231 0.002093155879775826 -0.00020360491111973307 -0.0008924269776221534 0.0020937584598772676 -0.0003186461989625154 -0.0007067778130898459 0.00202510571684833 -0.00041065378881450024 -0.0005301724063192762 0.0019016136232829222 -0.00048156442114973474 -0.00038619436054675095 0.0017515901287573756 -0.0005340198722732833 -0.00027170153481633104 0.0015976278333910178 -0.0005745629790655134 -0.00017708763389263568 0.0014525853635237636 -0.0006088655340211468 -9.806747102569097e-05 0.001316886518836573 -0.0006373063938765189 -2.4603137837350686e-05 0.001175869956736332 -0.0006576273780477299 4.795285923747672e-05 0.0010146484220691279 -0.0006629403656192509 0.00010558967956567078 0.0008379377569223564 -0.0006490723408654649 0.00014422578180245393 0.0006571282804797123 -0.0006162678300849645 0.0001648033835792012 0.0004841888325569225 -0.0005673511683590669 0.0001713069207577994 0.0003301427732737246 -0.000501851192351627 0.00016022746399263488 0.00020933016325546747 -0.0004289620490619747 0.00014198198776288473 0.0001127372175246855 -0.00036072889281681293 0.0001232793739581739 3.925413612727889e-05 -0.0002669120451323781 0.00010768403598274134 -4.095854649742118e-05 -0.00015442377147344838 6.53236044680372e-05 -0.00024203762215753744 -0.00010028402756934174 0.0005309880257777753 -0.0008487087251250436 0.0 -0.0014914918362512013 0.000567889882228203 0.0004561286344241729 -0.0016255244035456601 0.00047546131274743715 0.0005355391249191422 -0.0016432788494685326 0.0004915374495633164 0.0005285960778877706 -0.0016173250190249517 0.000634998955562598 0.0005055518206506819 -0.001587362892576905 0.0008272953100003359 0.0004653375752402336 -0.0015558775289054192 0.0010289901036247785 0.00041818914676786285 -0.0015118695176067464 0.001242873543477407 0.0003426948503026687 -0.0014287374916473732 0.001493192394117039 0.0002325942739899705 -0.0013009720147448 0.0017386412800471384 8.77377713105875e-05 -0.0011356664259140423 0.0019226086076615475 -7.188750435302774e-05 -0.0009506438778313106 0.002010732159828808 -0.0002117331777857015 -0.0007659601142378544 0.0020038762673553674 -0.0003276499912887752 -0.0005852302887712161 0.0019244588029142073 -0.0004170193898904301 -0.0004213545088007577 0.001793331719829811 -0.0004832441833223858 -0.00029615095934795504 0.0016425455010013175 -0.0005300397277073696 -0.0002002888900254282 0.001495328393065774 -0.0005657291651548456 -0.00012038697904603662 0.00136052910485358 -0.0005966753653545674 -5.032038125407038e-05 0.0012328610788919672 -0.0006222528147355622 2.0108552127657414e-05 0.0010930860237053407 -0.0006400272449664235 9.10598403895159e-05 0.0009277960362983537 -0.0006436245953156698 0.00014539465301242546 0.0007454645374832939 -0.0006283817986195445 0.0001786971132779827 0.0005602003128454854 -0.0005942359112928071 0.00019293600668433483 0.00038567330468214774 -0.0005436187852070548 0.00019166497552499523 0.00023286871634939788 -0.00047403999156908974 0.00017333068245239946 0.00011273498713399424 -0.0003952725612850344 0.00014893522749889754 1.5850830141320616e-05 -0.00031363680609793054 0.00012509105422355005 -6.417767490988604e-05 -0.0002112601731779351 0.00010806938434784752 -0.000167714600601494 -0.00011832766659310157 0.00012632532217840553 -0.0003893244145452238 -0.00014415162462628334 0.0005880052678965408 -0.0008595343045962856 0.0 -0.0013624912870144727 0.0004484652809779704 0.00040250679462369547 -0.001508586575139725 0.0004393429397889977 0.000515486069526593 -0.0015400755577155562 0.0004861754880662048 0.0005270245165241717 -0.0015246305719758162 0.0006080321610153596 0.0005051742485438042 -0.0014929407885476195 0.0007823480376124495 0.0004677515611082187 -0.00145487662486255 0.0009664193085461146 0.00042606846702995804 -0.0014042471160930596 0.001162478395466844 0.0003576605278236217 -0.0013168121552520062 0.001402990301515797 0.0002515932543211436 -0.001184719299732722 0.0016514231119327876 9.96906091085244e-05 -0.0010126913127098819 0.0018410817048230789 -7.272443297784772e-05 -0.00082182093923284 0.0019280277686033716 -0.0002201816409647759 -0.0006359395597659153 0.0019110239663188498 -0.00033634151961093976 -0.0004611400565528879 0.00181826558369544 -0.0004215864018033248 -0.000312564803417288 0.0016785183844990569 -0.0004815826069446902 -0.00020817066800122956 0.001527839591452369 -0.000522227823566165 -0.0001313071448269306 0.0013890977139258305 -0.0005537653598399351 -6.523828178166616e-05 0.001266047607997071 -0.0005828677413958899 -2.6771064228284236e-06 0.0011473125632876194 -0.0006074194656789525 6.582210168279076e-05 0.0010092897132632352 -0.0006238654677419434 0.00013537862939769912 0.0008402830264015871 -0.0006260457806158155 0.00018607118092360542 0.0006526000427866204 -0.0006091003602497654 0.00021361109119975158 0.00046306756300058057 -0.0005729831242940395 0.0002211518426796233 0.0002868192605936797 -0.0005200504487321359 0.00021226268154912742 0.00013449288472732338 -0.000446991073602283 0.0001872006371113205 1.4334507910212839e-05 -0.0003644036631643404 0.00015729446696582938 -8.325255501451401e-05 -0.0002761322665490347 0.00013004621353232548 -0.00016980964764610015 -0.0001789209622704846 0.0001152469138264306 -0.00028724231023934425 -0.00010798188609562054 0.00018120107804636687 -0.0005088695772795027 -0.00015374187638768355 0.0006303617545226556 -0.0008690528666484986 0.0 -0.0012421528787598156 0.0003443288750789883 0.0003633111339907601 -0.00138928842436572 0.00040133517537558797 0.0004944793293496089 -0.0014297382829327877 0.00046225701613701836 0.0005150587576454643 -0.001419901564981587 0.0005802011687715061 0.0005000394445427358 -0.0013881425393848222 0.0007390403366552851 0.00046414076158474496 -0.001344136798667263 0.0009078523492923559 0.00042736939105606853 -0.0012877006620603173 0.001086956709492499 0.00037011394619921884 -0.0011988244697113295 0.0013152279722984282 0.0002709721181302933 -0.0010651986138017107 0.0015653357228142693 0.000114459583533396 -0.000887633941817171 0.0017604616326564525 -7.270784236538055e-05 -0.0006898730981884527 0.0018449137551777603 -0.00022921205551724305 -0.0005019936047810155 0.001813920910517281 -0.00034450153871205813 -0.00033512537281714687 0.0017036874032566945 -0.00042342763802846045 -0.00020704686436930596 0.0015543382118402445 -0.00047542182624257107 -0.0001269030590921004 0.0014058106527243782 -0.0005098805550069266 -6.899698378120753e-05 0.0012785761115443582 -0.0005386859148176701 -1.4428067415541389e-05 0.0011694489120640428 -0.000567927364273307 4.364977224819745e-05 0.0010605742186541463 -0.000593095418110012 0.00011247561487601893 0.0009244029486774901 -0.0006089416756152252 0.0001811618461834072 0.000751803743681223 -0.0006096420146900015 0.00022765584890628923 0.0005591735938599266 -0.0005907069632175603 0.0002487447228079042 0.0003658518336168568 -0.0005525047194835583 0.0002490256050049107 0.00018793371224609993 -0.0004975561147334551 0.00023268123156131026 3.53147943792102e-05 -0.00042244871310248046 0.00020179376540208072 -8.585117245857136e-05 -0.00033803022022140666 0.00016769132920903262 -0.00018532785406137102 -0.00024787253570739826 0.00013954114291698377 -0.00027731488731276896 -0.0001590682517475031 0.00013442993997070385 -0.00039947159340537864 -0.00010622560226435096 0.00022720074066356205 -0.0005965543767128818 -0.00016125604100335894 0.0006482836486609855 -0.0008720587661699135 0.0 -0.0011326759264666405 0.0002531110478135032 0.0003293169324762668 -0.0012641695384030447 0.00035502183673499446 0.0004700558264388252 -0.0013107810277651296 0.0004342161186720878 0.0005000958283002439 -0.0013059392530720023 0.0005500015224636672 0.0004903998222706672 -0.0012729549051376456 0.0006965311560895482 0.0004555242954967253 -0.0012250278956135903 0.0008523481564054139 0.00042353078283977313 -0.0011635555020067159 0.0010134126379999007 0.0003783996090218258 -0.0010753666743311806 0.0012272113384474905 0.0002892396764318833 -0.0009420052860837089 0.0014786764157117506 0.00013142494296114124 -0.0007593369754956354 0.0016804167165890011 -7.241882090869116e-05 -0.0005537287807048327 0.0017613596440736682 -0.00024008225097823556 -0.0003645506576375072 0.00171049871963351 -0.0003526611713541043 -0.0002091080494987139 0.0015775603983075516 -0.00042201632217533404 -0.00010661642195418462 0.0014192035161969766 -0.00046419065904372905 -5.2551011927151614e-05 0.0012767965738173942 -0.000492576844512177 -1.2189893423251302e-05 0.0011652011196846325 -0.0005201563327582835 3.360422662844649e-05 0.0010722753870882184 -0.0005513081740679314 8.952294411694942e-05 0.0009737451089791977 -0.0005786419330744202 0.00016010625797242828 0.0008389604992201823 -0.0005947747612961012 0.00022805832476579385 0.0006623811472808725 -0.0005941746605324554 0.00026958243394299697 0.0004649433890544526 -0.0005732042448010977 0.0002838506335731891 0.00026832572928192134 -0.0005328672705816329 0.0002766487292840819 8.909625799919037e-05 -0.0004760885012929719 0.00025325011682379023 -6.382072910744118e-05 -0.000399932302527585 0.00021702050746828794 -0.0001857222037389651 -0.0003151687088074496 0.00017957471357432642 -0.0002867187981610015 -0.00022697793204162764 0.00015158181139328375 -0.0003815701288864362 -0.0001474829027838659 0.00015465342120275782 -0.000501398669718255 -0.00010950914797695083 0.0002666468875549416 -0.0006702441727382768 -0.00017352560677110634 0.0006577160408798577 -0.0008686069263005027 0.0 -0.001017297911296188 0.00017080511901393976 0.00029921820221727913 -0.001137172939417076 0.00030383650577071566 0.00044298486971472493 -0.001185290968319621 0.00040292720630744153 0.0004829522272741505 -0.0011835617633432745 0.0005173701825930283 0.00047720088986493315 -0.001149783750948649 0.0006547882762997053 0.0004430363529962676 -0.00109810610294807 0.0007990141435360304 0.0004155373631644305 -0.0010317794532504572 0.0009413786033468934 0.0003841392229593562 -0.0009458908585706972 0.0011377469035196545 0.000308071548411646 -0.0008141199659808828 0.001389557124141148 0.00015075661505098079 -0.0006263107582940105 0.0015996110007778289 -7.294056060884804e-05 -0.0004106907048800619 0.0016772738591715318 -0.00025356780302222826 -0.0002183435467965338 0.0016010471941198415 -0.00035998679222714984 -7.828935928887561e-05 0.0014400972182823388 -0.000416836987859142 -8.824454768585795e-06 0.001274258226005982 -0.00044799644997620125 1.5314150220623046e-05 0.001142333196159971 -0.000470899639238128 3.847105979852897e-05 0.0010503498541779414 -0.0004988788044033368 7.81516924499362e-05 0.0009754141039206529 -0.0005334483352936598 0.0001346749119604581 0.0008871156818472637 -0.0005642372042278763 0.00020872816223455049 0.0007529612825042989 -0.0005811619350163215 0.0002764127382474252 0.0005717091435089374 -0.0005794160729356793 0.00031228039776099586 0.00036959005618685957 -0.0005565542374957573 0.00031926119366707667 0.0001702267738928621 -0.0005143092470066071 0.00030429088192070186 -9.90436353609592e-06 -0.00045621339662502147 0.00027400101605620786 -0.00016289837446956695 -0.00037983403301380947 0.00023277435817233016 -0.00028530421030592947 -0.0002960565193780018 0.00019251809308831747 -0.0003872387850333883 -0.00021132710168224322 0.00016548631368891453 -0.0004829515008529008 -0.0001405088270790486 0.00017568334142366998 -0.0005953896234256105 -0.00011373020079877283 0.0003010893940775042 -0.0007340712643392584 -0.00017975368968213556 0.0006605454871612959 -0.000862212922377647 0.0 -0.0008950021556102119 9.64259996657938e-05 0.00027362108866166047 -0.0010072869954492393 0.0002542497658180338 0.00041554937146029474 -0.001053656057389006 0.0003681119409250182 0.000461190226834477 -0.001052675454349923 0.0004840165757141742 0.00045901614921457735 -0.0010183502550240768 0.000614995641380096 0.00042595564727700066 -0.0009626707627086687 0.0007491711660751239 0.00039871089495491837 -0.0008907259695398323 0.0008733229177126156 0.0003808841713783626 -0.0008074921887425471 0.0010469265452892414 0.0003246717998304392 -0.0006813001912577168 0.0012950977627709808 0.0001719548268944316 -0.0004897743118181426 0.0015146123450886166 -7.01228227386573e-05 -0.0002638625796372439 0.0015890795763136318 -0.00026712435317276587 -6.99563797483868e-05 0.0014791313350891963 -0.0003645944278602995 4.5420305104184114e-05 0.0012817562187926136 -0.0004050984210633955 7.26736030529614e-05 0.0011130600919185573 -0.000423944070000383 7.104563032421518e-05 0.0010022378796445389 -0.00044339559548570856 8.270385947802862e-05 0.0009357530041032069 -0.0004734701057679345 0.00011964993778604792 0.000880374015202604 -0.0005137369128252172 0.00018025191120424507 0.0008020601763740711 -0.0005493822790445437 0.00025921964970374023 0.0006667314422682755 -0.0005673328365258328 0.0003247146691912062 0.0004796809207323552 -0.0005645787303511511 0.00035448936644848217 0.0002732549894823188 -0.0005398470750952039 0.0003534921978488523 7.20325377106239e-05 -0.000495953088183454 0.0003309880752532038 -0.00010807688150406148 -0.00043701987069839215 0.00029435567543941235 -0.0002603796801096748 -0.00036116935796472877 0.0002488247241341085 -0.00038247229149926214 -0.00027946020668607324 0.00020646191102838274 -0.00048401731739294905 -0.00019914851345138526 0.00018030126870959007 -0.0005777910735030402 -0.00013636478918525874 0.00019569301158492425 -0.0006788365799791196 -0.00011752837748188472 0.00032415308215405503 -0.0007857263577962241 -0.00018014646801995174 0.0006546631193057179 -0.0008571669516098644 0.0 -0.0007693913459925732 2.822370383881467e-05 0.0002494508203472941 -0.0008722702592562036 0.00020584066958309467 0.00038810918514061853 -0.0009160742079127348 0.0003313413425608168 0.000438143050393339 -0.0009151434282742163 0.00044929524879947424 0.00043936859414252325 -0.0008800994433701101 0.0005749510797799065 0.0004072434066111387 -0.000820820009324764 0.0007002174827752353 0.00037793107779518845 -0.0007435082729975893 0.0008076835307081447 0.00037665168872833346 -0.0006597685755062735 0.0009517892460055038 0.00034386342367281365 -0.0005415027303162975 0.0011939210873461994 0.00019565946239976165 -0.00034631259518180774 0.001424903093017655 -6.758869982701268e-05 -0.00010576264512639455 0.0014977785004335364 -0.00028415724446065327 9.488965150528442e-05 0.0013504385195343628 -0.0003665998568558766 0.00017958201426756214 0.0011105222983948044 -0.0003880918356587576 0.00014970009018089835 0.0009442101306977227 -0.00039487087312226055 0.00011876845534426576 0.0008608658347830845 -0.00041244766549676515 0.00012098829884712396 0.0008225466236421411 -0.00044573828733481327 0.0001580440610445804 0.0007867827009073368 -0.0004935869097521892 0.00022492039777557982 0.0007182973334766434 -0.0005343983222756733 0.0003118769672499355 0.0005792699383144717 -0.000553626723286689 0.0003745522817423137 0.00038593140728361564 -0.0005500859015606704 0.00039782306288438027 0.00017543176024620777 -0.000523775145510337 0.0003882628976452883 -2.7097579891522166e-05 -0.0004787419924237842 0.00035791910230726504 -0.00020649034039934666 -0.0004194885381359065 0.00031493863611549433 -0.0003576643220547536 -0.0003448367537519578 0.00026511149076809126 -0.0004788570876940818 -0.0002657487549847827 0.000220726777051386 -0.0005793082902663492 -0.00019020097347047238 0.0001952017980492403 -0.0006695746552333955 -0.0001341009888608663 0.0002151922399995579 -0.0007578685391717012 -0.0001203628648891869 0.00034349100176750413 -0.0008340257344308749 -0.00017938000348116656 0.0006458768134044723 -0.0008569211413473251 0.0 -0.0006395886880367328 -3.426311780344083e-05 0.0002279712558173787 -0.0007323145362193807 0.00015808654430950818 0.00035964079865486337 -0.0007724861992027985 0.00029475744614105003 0.0004104492870992962 -0.0007704778946369241 0.0004151840907405897 0.000416079981788471 -0.0007341384207415785 0.0005372663300335208 0.00038097988345539135 -0.0006704696741451498 0.0006567851579857746 0.0003473647959359083 -0.000586255594338111 0.0007467668595908119 0.00035640832380242835 -0.0005008144518685272 0.0008546523366916923 0.00034266258577570017 -0.00038767759827281487 0.0010876580139131619 0.00022638782429103277 -0.00018327483921994666 0.0013407094094320027 -7.589475014410652e-05 7.577015822925073e-05 0.001404789816392937 -0.0003180861737900262 0.0002583625366566378 0.0011825557077880544 -0.00036492205595449164 0.00027567952387388267 0.0008962234383056352 -0.0003577997005626962 0.00019913407762615042 0.0007632639586816418 -0.00035737994095158716 0.00015755548638388822 0.000721228926031647 -0.00037352305143417003 0.00014939094187456717 0.0007118352614975582 -0.0004140978826321076 0.00019759906368399874 0.0006994858208741638 -0.000471782970466959 0.00027367766344993036 0.0006371179871032272 -0.0005180078682035204 0.00036468163365040857 0.0004906203204599198 -0.0005385435800928018 0.0004239641334593536 0.00029054777102498447 -0.0005338861557904731 0.000438101059106126 7.660398252268626e-05 -0.0005061735785255785 0.0004203720559694882 -0.00012560998612448553 -0.00046041941212607296 0.0003826366463165025 -0.0003028101108233426 -0.0004014329964654659 0.0003341740725839454 -0.00045158398489336465 -0.00032863614766143624 0.00028090138175715373 -0.0005705561046294665 -0.00025274438490217703 0.00023489777829260872 -0.0006683674026885847 -0.00018222465194621396 0.0002095238428963253 -0.0007528971028141075 -0.00013178438229834166 0.00023007141425461508 -0.0008263042028399427 -0.00012145631098099685 0.0003515442202030247 -0.0008733715500065274 -0.00017686622157185583 0.0006275118119537793 -0.0008527233245901881 0.0 -0.0005042275030585845 -9.164569808275643e-05 0.00020679772409902447 -0.0005877393060063354 0.00011178811170011149 0.00033107670246766035 -0.000623579895454152 0.00025785635656222706 0.00038249411645616246 -0.0006195840075008598 0.0003799237603501709 0.00039173736931950273 -0.0005821807594626209 0.0004991357700377352 0.00035411066666170103 -0.0005149555652703215 0.0006154211469995251 0.00031350009094668896 -0.0004186344566206347 0.0006885069423239716 0.0003316674244035851 -0.00033281148675843957 0.0007588448569207445 0.000347392879075592 -0.0002280550437612781 0.0009716984380684995 0.0002584565235909102 -1.1150846757803983e-05 0.001245928948511447 -8.443819389698879e-05 0.0002747627801591669 0.0013000168669128846 -0.00034791570347986883 0.0004563768550887 0.0009904769468119174 -0.000351293547384569 0.00036924021213390404 0.000669250070620453 -0.000322012138981362 0.0002373359571161901 0.0005846243726730582 -0.00031497429681117957 0.00018520761127530788 0.0005828788256206247 -0.00033116986843029 0.00017350744700716375 0.0006045275705115576 -0.0003816112788363069 0.00023221477852564815 0.0006168517829901993 -0.0004496047404790853 0.00032479681092002777 0.0005550425100083515 -0.0005014346641773414 0.0004196800168232012 0.0004002582941298545 -0.0005229448477986594 0.0004751257670179698 0.00019264280102751003 -0.0005173194328172911 0.0004794052167984286 -2.4046725725173922e-05 -0.0004886910025751496 0.0004527582476559766 -0.0002249100748427935 -0.0004428062598116154 0.0004074471239484678 -0.0003992372706901736 -0.0003847395923634936 0.0003533729062489277 -0.0005449371670084794 -0.00031428432602322726 0.00029661532513992894 -0.0006611804118697895 -0.0002419768020753936 0.00024886482012814737 -0.0007556815006307546 -0.00017622355276550143 0.00022332812954775627 -0.0008337196228963855 -0.00013027161229754725 0.00024381421635891187 -0.0008922806559944399 -0.00012149087571512382 0.00035756893886976227 -0.0009123108955718398 -0.0001715312473319769 0.0006071318312498228 -0.0008529818275025225 0.0 -0.0003639503411026559 -0.00014444243049143853 0.00018727297771406755 -0.0004384113277844784 6.826548951632881e-05 0.00030193262823873543 -0.00046941339637491565 0.0002220562616137215 0.00035257072908698563 -0.0004624939891684446 0.0003465209387875507 0.0003600001812319362 -0.0004231309856984939 0.00046417297117316885 0.00033129401524810984 -0.00035289193760581474 0.0005801733339661705 0.00026322571705431844 -0.00024126852474198087 0.0006526131297877335 0.0002873758439129494 -0.0001363270297938023 0.0006730401061281268 0.0003547461335722561 -5.254103564403587e-05 0.0008487330502108674 0.000268574911678008 0.0001786615867457545 0.001111257387698459 -4.200145536046446e-05 0.00044523281750688017 0.001113837556456047 -0.00032270484221477366 0.0005906676867508676 0.0007350432566821591 -0.0003100894243183365 0.0003929471698078772 0.0004361042521876546 -0.0002797810535077605 0.00027912333128676803 0.00041392875132012475 -0.00026128232856666503 0.00018457386594113515 0.0004414046130962946 -0.00028346074316626564 0.00020086969613968345 0.00051176663030026 -0.00034679336452287865 0.0002724458221037198 0.000540472844785857 -0.00042622990923040296 0.00037893000529255587 0.00047348435602708003 -0.00048302067365769454 0.000477563790224525 0.0003073995153422847 -0.000504444592826476 0.0005224273103404328 9.179561905160876e-05 -0.0004976984399053543 0.0005171604503662192 -0.0001254596909107072 -0.0004684169827823305 0.0004812706972913902 -0.0003230391477873142 -0.0004230583655816626 0.00042930263797612625 -0.0004927407576582275 -0.0003666004549420093 0.0003705760046728013 -0.0006339772496700634 -0.00029912474153000537 0.0003109540224806723 -0.0007461958759455164 -0.0002308825241441187 0.000261760530998717 -0.0008360572888224223 -0.0001699015565168327 0.00023506855061777854 -0.0009062825981858259 -0.0001278621198138527 0.00025245002368688013 -0.0009497795025717125 -0.00011970410421865973 0.0003538786945326694 -0.0009445368833252752 -0.000164000744547331 0.000577117053696008 -0.0008508970747387895 0.0 -0.00021910150031969404 -0.00019292726846066873 0.00016801235536474494 -0.00028431308033389303 2.7046657085367706e-05 0.00027275171898925036 -0.00031030017497101815 0.00018667885861422975 0.0003218077241197235 -0.0003003075772754152 0.00031342895126097373 0.000328108827703445 -0.0002589217737533248 0.0004295041787399979 0.0003068557457633499 -0.00018685391331212483 0.0005459364726965271 0.00021119432658856397 -6.976275258921549e-05 0.0006311158146964966 0.00023082959631339547 8.049831886842984e-05 0.0005829252673519145 0.00031679349270295233 0.0001536443287617436 0.0007152028615030312 0.0002964362506134551 0.00040662689004374204 0.0009407156434976793 -4.8800039689864995e-05 0.0006709455296338195 0.0008602218257994241 -0.00035967598920874297 0.0007741655382088944 0.0004767516857963809 -0.00028273893961662175 0.0003859150355082497 0.00023201019270061563 -0.00022783255851759358 0.000294501603585344 0.00023359251537655328 -0.0002012756963530888 0.00018435737927559662 0.0003118375743163317 -0.00023384154914556 0.000217133914129794 0.0004291905312027245 -0.00031188727417082 0.0003168189678373137 0.0004660469610292512 -0.00040294293417508526 0.000435564168399058 0.0003913252116003512 -0.00046320745932346575 0.0005374095651550642 0.00020969938597941617 -0.0004840281873423006 0.0005705003619447327 -1.2209000095904441e-05 -0.00047616775020222456 0.0005539196386977613 -0.00022846243519570003 -0.000446820336817067 0.0005088881541235185 -0.0004212848779275382 -0.0004027734034572905 0.00045013047993204547 -0.0005851642541929158 -0.0003486039314049491 0.00038693111681292747 -0.0007212119339773911 -0.0002846950008130282 0.00032458238276338036 -0.0008286777989840579 -0.0002207958562741568 0.00027384898279805836 -0.0009133051626070213 -0.00016439028022466676 0.000245643741286522 -0.0009753474158871657 -0.00012539676023151994 0.00025908901237936544 -0.0010044361781525568 -0.00011661735270569046 0.000347211060504074 -0.0009762151962571615 -0.00015464796206388076 0.0005436468716824641 -0.000851595751768906 0.0 -6.972956496489768e-05 -0.00023733370479695368 0.00014956722755585586 -0.00012592750588501388 -1.1328667068267666e-05 0.00024338172579117361 -0.00014657879322534225 0.00015308582216808333 0.0002890357275610835 -0.00013330485797021315 0.0002820393042832427 0.00029536990067690954 -9.026366010181712e-05 0.00039742863544872995 0.00027790302062746797 -1.6178691867419035e-05 0.0005162730753548979 0.00016878231326544692 0.00010572021070710791 0.0006174763145857989 0.00012157089635172081 0.0002944937382111983 0.0005262427086314805 0.00018501734375703932 0.0004307313331285143 0.0005510883018385816 0.0003519771161492168 0.0006967440840087986 0.00070791817697687 -0.00021155470139735955 0.0009072796269562313 0.0005313971446716154 -0.00048783208958389467 0.0009603617835614643 0.00021285986375600824 -0.00026198158952148946 0.0004517652478530122 2.3269156902083032e-05 -0.00015803285213500558 0.0002393371003442113 3.9379286004736214e-05 -0.00013441870588349648 0.00018861820286594604 0.00021051359302224666 -0.00018226231076431954 0.00023509075747265955 0.00035625779192186805 -0.00027735778090374336 0.0003688765284132426 0.0003970062175364939 -0.00037872416636069474 0.0005016146954526512 0.0003048093333804055 -0.00044039640397156975 0.0005953487219250153 0.00010606160027547368 -0.000459481347139936 0.0006162710114850506 -0.00011971952419796383 -0.00045035497075901487 0.0005858484603356584 -0.0003324094398578606 -0.00042167507554327285 0.0005327285365355691 -0.0005178950677139539 -0.00037972000200134706 0.0004679061709032782 -0.0006744726821058517 -0.0003286789653923622 0.00040086129156444855 -0.0008039564423272169 -0.0002690294396259941 0.00033648756778154043 -0.0009056496664989526 -0.00020993295110976334 0.0002842381600157706 -0.0009841657000666999 -0.00015817113283655287 0.00025386499355523756 -0.0010375958892573963 -0.00012188337187563764 0.00026135166522119405 -0.0010529697375942018 -0.00011193929416268567 0.0003337370820312435 -0.001004059778557578 -0.0001433105362207976 0.0005025747998573526 -0.0008512429006730689 0.0 8.424292640866687e-05 -0.0002776697220989436 0.00013160654449262383 3.6651664611657163e-05 -4.686915070871729e-05 0.0002137930814511904 2.1529894363783882e-05 0.00012071192105225846 0.00025583205871292986 3.7827596807145616e-05 0.00025139674020705833 0.0002625372635359634 8.179616454314837e-05 0.00036733952179866276 0.00024888642605005984 0.00015646694679326766 0.0004886195558106623 0.00013658036156488987 0.0002931172251338938 0.0006237447516278306 3.2207171282877664e-05 0.0005129079120389343 0.0005613919277526431 5.3355415432120284e-05 0.0008219873883605323 0.0004256462773080083 0.0001465336145015715 0.0011866035602698206 0.00044450007296062475 -0.000293101870256037 0.0012642520531549002 0.0002661563432243317 -0.0004373693489037409 0.0009935785957690376 -8.38090631701908e-05 -0.00019497718851817312 0.00045970868019928196 -0.0002605448087555405 -8.82700718204954e-05 0.0001993368135029018 -0.00011640552566822055 -6.535387204966749e-05 0.00017194080812001078 0.0001259720792544349 -0.00013319840186552714 0.0002696652806607608 0.0002964385505872125 -0.0002449449043871875 0.00042468272566343473 0.0003290385364801936 -0.00035389412828278066 0.0005723013795204991 0.00020921705785327833 -0.0004144207444162283 0.0006539682947072495 -4.0069951320034276e-06 -0.00043021138103547173 0.0006571540426718592 -0.00023182611282608251 -0.00042010637137274154 0.0006147534255016157 -0.0004370962235047276 -0.0003929231022320942 0.0005529732088859346 -0.0006129878639124505 -0.0003539053811537976 0.0004828792068639759 -0.0007608710814296638 -0.00030693611914579116 0.0004125602314735133 -0.0008824982470915255 -0.0002522656738746295 0.00034650204990087363 -0.0009776386392836046 -0.0001984524664021721 0.00029283562491692894 -0.0010494009423362054 -0.00015140809187473916 0.00025989788326949426 -0.001094158395300694 -0.00011751292956405784 0.00026045069971421253 -0.001096950784273662 -0.00010581911758609369 0.00031576175490363734 -0.0010297450309791917 -0.00012990382816843032 0.00045578738203223834 -0.0008516058026034254 0.0 0.0002424306553592651 -0.000314345349665581 0.00011409593774448808 0.00020320065510429558 -7.922066791684277e-05 0.00018392846409087533 0.00019385463840618415 8.985291261837628e-05 0.00022218780991421837 0.00021159623148115145 0.00022164392272331165 0.00022962092401826147 0.0002555748843704959 0.0003393852994000993 0.00022024165987930217 0.0003271931773933058 0.0004626493932366191 0.00011900518395101148 0.0004591755613336337 0.0006483103350437534 -2.646447934205945e-05 0.0006988757797840319 0.0006811792523331454 -0.0001493346233462636 0.0012958076918946299 0.00042593683011876374 -0.00030920351360955514 0.0018925942096075865 0.00013583349235120164 -0.0001546794397822883 0.001848284052896157 -8.515162832896304e-05 -0.0002761272432697526 0.0010290149372153288 -0.0004136841075948379 -0.00011478742984229184 0.00022461745606647265 -0.0005280359597332152 -2.0427965810601578e-05 0.0001666222486824201 -0.00022932681539835565 7.403621423320364e-06 0.0001426114531887547 5.351400390962141e-05 -8.81301892657893e-05 0.0003168704958258512 0.00025254263000015287 -0.0002133648471977622 0.0004982388483363801 0.0002532878710229265 -0.00032733055973554765 0.0006459718546533155 0.00010523131428298407 -0.0003832940316633917 0.000716163662312086 -0.00012334635061260897 -0.00039493964734805664 0.0006926323248929098 -0.00034846149790236696 -0.00038457338022956054 0.0006399324338405149 -0.0005420555182348408 -0.00035986168042123276 0.0005695251525210734 -0.0007066102782721871 -0.0003247529702177128 0.0004947244561815459 -0.0008440414156013913 -0.0002829142755489192 0.00042192587995525804 -0.000956751088711379 -0.0002339543968327487 0.00035455455399840963 -0.0010445668861375752 -0.00018594253894815838 0.0002996561998011571 -0.001109089269251005 -0.0001438368180174815 0.0002638360822840857 -0.0011453636625852863 -0.0001122171018615864 0.0002565027947888654 -0.001136967350624444 -9.836044698906254e-05 0.00029335752957511396 -0.0010540032888996774 -0.00011468987933969943 0.0004032846182070171 -0.000853300250442054 0.0 0.0004051610102397989 -0.0003473083030028753 9.696411190194401e-05 0.00037397884198959124 -0.0001090192503101337 0.0001537325592350716 0.0003703422400857433 5.931346143300259e-05 0.00018695632176853082 0.0003877346678260045 0.00018992562811391954 0.00019941363668450553 0.0004283403686566648 0.00030604104941461737 0.0001911328517998506 0.0004928251371023633 0.00043058141359663966 0.00011675369539614695 0.0005800726723708938 0.0006328043650309979 -6.67674916247636e-06 0.0007515291137259435 0.0007038157643914974 -0.00021704678758511955 0.00160173396224615 0.00045235264630652294 -0.0006079071373824079 0.0029508618467751204 0.00023060051332933577 -0.0001938018016707484 0.003556311749302255 0.00017204397396291502 -0.0001649352882025154 0.0022315401113492065 -0.00018671335472348098 8.415336225238001e-05 0.00023431254383663933 -0.00047041760177253175 6.123662138549351e-05 7.180148199337905e-05 -0.0003228962655917303 7.05233200098054e-05 0.0001765404780096 2.8493309820690777e-05 -5.1898971152201066e-05 0.00036681911043783336 0.00020906225868214866 -0.00018675892538809209 0.0005887344018748603 0.00016554346981052643 -0.0002995829874937392 0.0007219221643783545 -1.3731664554181884e-05 -0.0003446557885085546 0.000764802128332874 -0.0002571047368143095 -0.00035113478869672806 0.0007211963454368114 -0.0004685099384379794 -0.0003412028256509544 0.0006566391676453703 -0.0006465901569370605 -0.000319678743704338 0.0005795152478667992 -0.0007967327959983222 -0.00028965515947193196 0.0005012191365234633 -0.0009212926413628701 -0.0002541605720878526 0.00042696687267568256 -0.0010235860649799157 -0.00021192802065757473 0.0003589907796754943 -0.0011028524059184047 -0.00017061524904484447 0.0003032025868690835 -0.0011594567672855772 -0.00013411530809113656 0.000264309278983188 -0.0011873747468681567 -0.00010516487615806064 0.0002483802600742602 -0.0011692407813772908 -8.924340353581167e-05 0.0002652506124939946 -0.0010734312270999768 -9.758173324143915e-05 0.000342650065344563 -0.0008529692722922035 0.0 0.0005732113711279085 -0.0003765774755654076 7.982342825059425e-05 0.000549775318820667 -0.0001358974543518187 0.0001231267650753795 0.0005514624547605014 3.0081781525825455e-05 0.00015118212954315694 0.0005687037296020971 0.00015644008487261394 0.00017090298563580573 0.0006031784418663517 0.0002688540798732 0.00016204721750538373 0.0006596429493322682 0.0003948362877697048 0.00012918692194599426 0.0007223615190381739 0.0005803021083094706 6.831221487891247e-05 0.0008478792201833713 0.000636771572366346 -0.0002513050952544331 0.001525268050612808 0.0005900469996368477 -0.0008969955869487806 0.0036439612691346324 0.0007036318785568752 -0.0003053368349963618 0.005611399258456226 0.0007467210408860049 9.829644006880897e-05 0.00457056062247403 -3.9432990000318206e-05 0.0002640934724815677 0.0006815923067514142 -0.0003384922962047943 0.00011897089054464793 -7.282952632483089e-05 -0.00038064137400987117 0.00012777999894396028 0.0002223984455890695 3.3764821372270557e-05 -1.795432388094695e-05 0.00044492758903841995 0.00015070570345148343 -0.00016126106690523417 0.0006885517114858745 7.089872720403577e-05 -0.00026532562818568214 0.000818910919189085 -0.0001550926413413594 -0.00029691512361236906 0.0008087692328513779 -0.0004004282163680298 -0.000299560747160808 0.0007472916244878058 -0.0005918243911823363 -0.0002913913283120349 0.0006698409525804708 -0.0007520071236138117 -0.0002741873238128476 0.0005862980196786292 -0.0008854720053109275 -0.00025081089233327386 0.0005050391343668567 -0.0009957327173656578 -0.0002226937668776477 0.00042985558559185955 -0.0010868468562939865 -0.00018814561552142964 0.0003616470197524424 -0.0011569573451849114 -0.00015416544776102048 0.00030525149629477555 -0.001205548866403086 -0.0001236219917636061 0.00026337622477506234 -0.001225747138363611 -9.748811048023581e-05 0.0002387152342155155 -0.0011997650095513567 -7.92732492239101e-05 0.00023491123733974245 -0.0010943143130555256 -7.836076566450356e-05 0.00027831924473781244 -0.0008572304239989319 0.0 0.0007472914754257109 -0.00040193960061646127 6.109626219371502e-05 0.0007323449007824083 -0.00016113409077570404 8.906323296089695e-05 0.0007380711915546735 -3.3068155763735568e-06 0.00011353408049351218 0.0007535582031259992 0.0001130694544104593 0.00013718971387656465 0.0007783942378002868 0.00021814406116988584 0.00014264175444699597 0.0008204621990681476 0.0003419056307379814 0.00012271996482223478 0.0008876851091944964 0.0005263833806694721 6.228112744997133e-05 0.0010707013086535752 0.0007007980877135454 -0.0002625596780870495 0.0014017899281341837 0.0010315712225064287 -0.0006895062811656675 0.0036280322406898697 0.0008679478576951004 -0.0003544778465862843 0.005573259047859556 -0.0003616652094606686 -0.00027459931675291854 0.006750863390001395 5.394533930613769e-05 -0.00014772546258129166 0.003525572151612262 0.00041563850755942084 0.0001701173543043632 0.00032583725611384784 -0.0002684556302857778 0.00015591853169099473 0.00023239992101300663 1.7720161716892044e-05 -6.351205233504596e-06 0.0005960556964609703 9.265151503168645e-05 -0.00014732850156726684 0.000794244800778162 -5.97534142139256e-05 -0.00022281847841945212 0.0008881245708486259 -0.00033616482910055315 -0.00023607571773250676 0.0008345108300305965 -0.0005550225591204027 -0.0002354529606253574 0.0007574055326268897 -0.0007195658859479182 -0.00022852779418018176 0.0006693468113287554 -0.0008555925334535368 -0.00021673020681933775 0.0005822986602162725 -0.000967821680862042 -0.0002012947314810644 0.0004998789831616932 -0.001060528603354074 -0.0001819673197282004 0.0004252503877195876 -0.001137956148003114 -0.0001566984353620804 0.0003580874412075219 -0.0011970526428104874 -0.0001316069673090864 0.00030183769754317524 -0.0012365078316863634 -0.00010860603953490033 0.0002574486758962352 -0.0012490154615408813 -8.678133582364078e-05 0.00022403563799477944 -0.001217025535495166 -6.732776698844395e-05 0.00019855589699148413 -0.0011052877732633047 -5.7396874571326306e-05 0.00020355291883802917 -0.0008559200119272844 0.0 0.0009283390173502076 -0.0004231634742840688 4.1325879648188425e-05 0.0009248337084741323 -0.00018275314225122611 5.3552112838052736e-05 0.0009340405785688736 -3.688086540035702e-05 7.50738485594241e-05 0.0009462043745693907 6.595742248586368e-05 0.000103386249084386 0.0009594148502233126 0.0001603572026889831 0.00012653008430934664 0.0009797900916370585 0.0002791904642886173 0.000113829762853073 0.0010260162375330412 0.00047606283101113016 5.8417677871768544e-05 0.0011260418399721443 0.0007931714880879651 -0.00020687334801880062 0.0012424306678235162 0.0014224158503898532 -0.00042440844569296 0.004095250800793851 0.00084611595570153 -0.0005732802529554871 0.0054731391295601665 -0.001453059055747935 -0.0007735365597340959 0.006525900691775621 0.0008426088834553175 -0.0003846040880593057 0.007676335806263011 0.00047131970688011054 0.0002577881381458629 0.0012443457920549295 -0.00037191674063240547 0.00016438110452942462 0.00028541616800095704 -1.6343217609953185e-06 3.026223853797201e-06 0.000756876779437643 2.8133560862563e-05 -0.00012850137794445573 0.000949540907602707 -0.00023531864129777127 -0.00016292966954379912 0.0009593053368970872 -0.0005364736646909028 -0.00016330395440220988 0.0008577836689162843 -0.0007164325514442694 -0.0001605514588207584 0.0007644348208427076 -0.0008512174874329486 -0.00015662042761472456 0.0006655745137451458 -0.0009601219483597018 -0.00015230582826167207 0.000575059441963302 -0.0010488578349862588 -0.00014630029581713146 0.000492084130458828 -0.001123006001329023 -0.0001373490120353156 0.00041838537660274233 -0.0011857667383567958 -0.00012248734394613298 0.0003527382140079416 -0.0012334291931697468 -0.00010722065095567467 0.0002970601703181641 -0.0012637654452746637 -9.259005464605508e-05 0.00025063612480333286 -0.0012694507311932553 -7.554436082823045e-05 0.00020892939550209988 -0.0012338373560405159 -5.478589718476215e-05 0.000161617379820872 -0.0011198946567812721 -3.5427244320151985e-05 0.00012656954540140285 -0.0008631178728775268 0.0 0.0011230041152313541 -0.00043859198522123847 1.479001396561023e-05 0.0011306850455150182 -0.00020626350847170448 8.43330492574697e-06 0.0011431607260109008 -8.209918244551056e-05 2.7727620128305952e-05 0.0011473161364848558 -6.132117488501671e-06 6.629954576318586e-05 0.0011418701791910781 6.594522146388997e-05 0.00010923876656884161 0.00112829444074437 0.00016385311336825791 0.00015125416492643056 0.0011135221963579807 0.00035231955605143284 0.00018723281303350756 0.0010013385719282973 0.0006316794258576958 0.00015481229428896846 0.0007028765212467852 0.0011192131277068113 0.00011766611361683013 0.0039040088312489426 0.0006442841823752503 -0.001184344099347436 0.007434432202733932 -0.00019793831869103535 -0.0009281605903919913 0.005182350805500061 2.7023974138431736e-05 -0.00011305550165563926 0.007710103194185795 -0.0020654031917410913 0.00034064522385758534 0.001617294233947783 -0.0007157287026118644 0.00013055224555473793 0.0005892840678042785 9.672689324822358e-05 -4.2123635946575595e-05 0.0009518735874994091 -0.00012535450486888015 -0.00010451495021992835 0.0010563610773886498 -0.0005050404347309101 -8.619044408061938e-05 0.0009837780513267426 -0.0007649162068548476 -7.511238090984491e-05 0.0008581079790726809 -0.0008921397590477525 -6.742717611381462e-05 0.0007482121209061027 -0.0009882441485236251 -6.684755020097775e-05 0.0006447601249385468 -0.0010624255090369518 -7.030913281727037e-05 0.0005527194054414791 -0.0011219538547163155 -7.481246313403508e-05 0.0004713957761554276 -0.0011729461311240379 -7.797561037298922e-05 0.00040057134760301816 -0.001217132050400206 -7.556521833895422e-05 0.0003380123647067218 -0.0012503805869633557 -7.24692396970681e-05 0.00028437960410346297 -0.0012695860492798847 -6.893387056801717e-05 0.0002375272277710394 -0.0012676619749784487 -5.974976399163168e-05 0.00018971281123032757 -0.001230125559931571 -4.029438787604006e-05 0.00011989408858683465 -0.0011196051572544207 -1.1262074229762692e-05 3.869225596844772e-05 -0.0008609508852192957 0.0 0.0013372995115435433 -0.0004464026403376968 -1.7906878271880598e-05 0.0013548495576868585 -0.0002258284846764037 -4.412239066018658e-05 0.001372556692624999 -0.00013330726236759533 -2.4987779353876732e-05 0.0013671284409304922 -9.228248063621633e-05 2.438088430089009e-05 0.00133887857257387 -5.279977545859485e-05 9.057646863838307e-05 0.0012870860448742092 1.1232519378303263e-05 0.0001881080982678836 0.0011873443949151343 0.0001566584619069553 0.0003087122608466516 0.0010057354340330463 0.0003417784603579495 0.0005110682898894087 0.0004694661932944776 0.0005581100959763512 0.00040490491226587264 0.0026060176068314605 0.0005512572974153419 -0.0014777837436088545 0.007675829850364555 0.0008581414591747325 -0.0007960063358816351 0.007185832138158776 -0.0018244244130745208 -0.00017890539920484977 0.007406966622682507 -0.0036314169479819193 0.00015867135968817073 0.0017553846957204175 -0.0007224008284156002 -1.396451705325735e-05 0.00089750903248903 0.00014955208223416228 -9.724013205624415e-05 0.0012145806030491868 -0.00038930077086210817 -4.522248838729646e-05 0.0011779537829279263 -0.0008300095398257265 6.917786981835549e-06 0.0009945405161592771 -0.001001797305414058 3.1603094036748497e-05 0.0008515340489198692 -0.0010776317071761426 4.1328319580660744e-05 0.0007252027053828436 -0.0011300345139993275 3.692568035832105e-05 0.0006170546384605263 -0.0011656948594019171 2.4162773382368878e-05 0.0005242436960265218 -0.001193515809894848 7.357275104077909e-06 0.0004451968262839806 -0.00121894398529521 -9.664136180479593e-06 0.0003779500617851622 -0.0012426665335645536 -2.142236387518183e-05 0.00031924411055997415 -0.0012600842904253481 -3.21103054052984e-05 0.00026856026619342943 -0.0012674063997966003 -4.14853054625762e-05 0.00022234531727835516 -0.0012581000015964132 -4.239769584962749e-05 0.00016992966932402598 -0.0012209945242028053 -2.5751065657341615e-05 7.950700803757704e-05 -0.0011192652663597781 1.592655020007938e-05 -5.214459388733911e-05 -0.0008672361101058643 0.0 0.0015720560567344848 -0.00043983066897145765 -6.804777843686082e-05 0.0016142779745193215 -0.00024361200608570443 -0.00011782675877808501 0.0016329645567850627 -0.0002068191710975912 -9.438391349170241e-05 0.0016158611043400378 -0.0002166642509672595 -3.529110876016473e-05 0.0015612582208873037 -0.0002347360418569373 5.990447898800025e-05 0.00146667657264894 -0.0002368021519133667 0.0001921897201432567 0.0012842073356582346 -0.00021633320207847844 0.00035143857630234453 0.001031136651455723 -0.00018908914801337188 0.0005591242103183416 0.0005071693886277593 -0.00030444128556348857 0.0003820744582182702 0.0010295164456310948 -0.00043825187568232577 9.564326674297175e-05 0.004691663230961591 -2.963390930897138e-05 -0.0011616811189871235 0.008772963962531598 -0.002289190971610952 -0.0014055066170057542 0.00981274058923276 -0.003578968162217291 -0.0006198387411771441 0.0032127965026632274 -0.0006871454228588791 -0.00029006679573205865 0.001474079875196925 -0.0001609126754152204 -0.00013554478209583214 0.0014028092496625524 -0.0008597102117389855 4.123300307397326e-05 0.0012119864124684743 -0.0012092451898742878 0.00012041030993624642 0.0009744089125257732 -0.001260072913821007 0.00015934983646877883 0.0008193303796357465 -0.0012772953131424203 0.00017105246757635967 0.0006826119597588831 -0.0012791912958024197 0.0001631522248769189 0.0005714637553608376 -0.0012695701277929778 0.0001410545086207339 0.0004797092785453587 -0.0012597829313668568 0.00011132030683223479 0.0004045699354552554 -0.0012539333411376473 7.878065093031711e-05 0.0003425057713197163 -0.0012521464490844658 5.056724216179198e-05 0.00028932077338023054 -0.0012494084025981302 2.285729402391745e-05 0.00024358300588890602 -0.001241627629323728 -3.075565317332829e-06 0.00020038202765209484 -0.0012233337603235874 -1.831796103218819e-05 0.00014677361874464168 -0.0011873245217616853 -9.411650356477841e-06 4.1257981950870715e-05 -0.0010998407392222279 4.050307919163318e-05 -0.00015186012501156032 -0.0008716786697882862 0.0 0.0018340582157740427 -0.00041235325492418106 -0.00014151268996513285 0.0019189508879026416 -0.00026203537547867477 -0.00021295518900095537 0.001936436170845047 -0.00029478814603454826 -0.00018786812366135378 0.0019076224386550865 -0.00037456664029422953 -0.00011701226132018028 0.0018329936299714372 -0.00046249512372850986 -1.834257588800587e-06 0.0017062678622292698 -0.0005535993028978651 0.00015666757479534986 0.0015168639915779433 -0.0006601142160281381 0.00034259955686801184 0.0011982575283741598 -0.0007917210749007979 0.0005115952703221318 0.0009796198368295997 -0.0011602895952723335 0.0004694767166474917 0.0006435970399961445 -0.0015202199713891327 0.0007979083083125621 0.0021645968276752196 -0.0010565109066776838 -0.0016338943091491111 0.006662694992279859 -0.0017429696662207787 -0.0010058605602166915 0.010275047765056243 -0.004119698703164622 -0.0008648478646676842 0.004445934017358863 -0.0014086502216098108 -0.0003918663303516239 0.002043575246002599 -0.0010097078120599675 -9.83497992193545e-05 0.001585970671916924 -0.0014824291056281765 0.00016160775137127143 0.0012015210747318567 -0.001597924160742529 0.0002592495131541932 0.0009379916075038172 -0.0015363072718397846 0.00030623643731587523 0.0007720928186622927 -0.0014907127186237993 0.0003221428857955212 0.0006259942594759177 -0.001436855193600271 0.0003109558577463589 0.0005122784963407373 -0.001377793341755033 0.0002793776131857703 0.00042227672502415103 -0.0013254313372992744 0.00023612930530951537 0.00035152522614599613 -0.0012834129434392432 0.0001866841402389484 0.00029542275909386073 -0.001251352159786165 0.00014019014418758732 0.0002488065548709034 -0.001223882311866621 9.265544078063993e-05 0.00020973757937634008 -0.0011969269052561895 4.678714212320162e-05 0.00017270316937495478 -0.0011666311790443883 1.2584630175390549e-05 0.00012263888248514876 -0.001132525781445644 8.171239724276413e-06 5.083809578754206e-06 -0.0010670676409355977 6.11615098311813e-05 -0.0002501001585858559 -0.0008783657148394115 0.0 0.002168656592359585 -0.0003405442289943291 -0.0002448956800922377 0.0022772788866883597 -0.0002818794763911353 -0.0003357314189077025 0.0023049277900214363 -0.0004013124149898837 -0.00031263452506202554 0.0022646856266670835 -0.0005752965681521178 -0.00022807262551356408 0.0021722948851603347 -0.0007471805188520225 -0.00010840468817446304 0.0020257616554933576 -0.0009498037913255828 6.889783725385365e-05 0.0018288983282426022 -0.0011776324723708756 0.0002527004049087812 0.0015369349022358314 -0.001465180692998703 0.00037541209852116246 0.0014570517562845116 -0.001922937433820596 0.00035413707098866376 0.00118417031539419 -0.002230207932923544 0.00030526458094552386 0.001198836421637102 -0.0024833521616145935 -0.00015638478690599682 0.0032442403834617873 -0.002612216453219056 0.00044969112873205095 0.006742687273437277 -0.0041719398431380415 -0.001008887004025961 0.004537265661125767 -0.002396467228385736 -0.0003915007205221293 0.0021720641298419545 -0.002282129389516227 5.202629525139814e-05 0.001554176276899329 -0.002198230791424575 0.00031309330784347095 0.0011278064099984192 -0.0019898971519434305 0.00042278274319968064 0.0008825196310134273 -0.001833933136435742 0.00047795101917141 0.0007050523983130746 -0.0017215298262431818 0.0005004233280444764 0.0005514614146534119 -0.0016054766338675875 0.00048754852149221657 0.00043590546975855876 -0.0014921587013319573 0.0004481458696450457 0.0003485036035088783 -0.0013911996780029982 0.00039126919645081706 0.0002827587463042139 -0.0013068002651420985 0.0003242289951693421 0.0002334483647302918 -0.0012381999002279438 0.00025741819118317924 0.00019465285360166507 -0.001179863866620752 0.00018710710051147647 0.00016420500442275443 -0.0011277772853539754 0.00011520571162923834 0.00013714853078651557 -0.0010802781063685802 5.3028253780215695e-05 9.676793871733758e-05 -0.0010482053616456858 2.8258257418894983e-05 -2.8702098419111644e-05 -0.0010143203126358343 8.88458625938407e-05 -0.0003464431238815735 -0.0008825511730311886 0.0 0.0025769474969362634 -0.00020286253141461777 -0.00042149742155573726 0.0027129327940536596 -0.00028844322436396116 -0.0005202998268803432 0.0027484462156097973 -0.0005503227052680364 -0.00048153231292729634 0.002698304848948666 -0.0008178523448524183 -0.00039296497658993456 0.002593337397451303 -0.0010852109172656524 -0.0002686927306632048 0.002451138261775408 -0.0013876181929214852 -8.732065167797536e-05 0.0022380368811729286 -0.0017377413666808967 9.199517615844665e-05 0.002075982713044211 -0.002130983462326487 0.0002257468156826012 0.0018874761060855005 -0.0025797688101801813 0.00021894694671984534 0.0018921304238803584 -0.0030096652245035194 8.509585429966561e-05 0.0019594483927229712 -0.003597457726613472 0.0002444509264203417 0.0027817462192851056 -0.0033620759864401513 -0.00010465103543438143 0.003187571410963125 -0.0027562864725839665 -0.00016588794440880342 0.00344025823821853 -0.0030467730251235474 0.00021347449729546605 0.0020578101546525757 -0.0033473289786189113 0.00039693367124793476 0.0014258590174435828 -0.002826706218254842 0.0005058728073658826 0.001023371024212641 -0.002368591554377428 0.0006139606530440574 0.0008068246631128644 -0.002151572315769025 0.0006727762821023026 0.0006145203386821174 -0.0019751692320257065 0.0007019817958531665 0.0004563444060818739 -0.0017935388200753088 0.0006908649328353686 0.0003381209105519922 -0.0016218476952558627 0.0006482241802075028 0.00025171805065575537 -0.0014655817731332248 0.000581337620240957 0.00019016926449737237 -0.0013291215657990478 0.000498594285393783 0.00014742456842569557 -0.0012135861979080858 0.0004112842184442267 0.00011708891851694436 -0.0011137978135832092 0.0003162325295110041 9.669903465864271e-05 -0.0010257273532462657 0.00021417935663292642 8.187295884627688e-05 -0.0009490050830487832 0.00011502830084777343 5.99590885741047e-05 -0.000902171294418645 5.446860969071654e-05 -3.1357278707469516e-05 -0.0009001831070231908 0.00011540605291648215 -0.00044788413981541875 -0.0008767623960990918 0.0 0.0030075143411176734 5.6273575535232944e-05 -0.0006435034716615849 0.0032964800702103498 -0.00027459862705633164 -0.0007409148254549369 0.0032919755392679367 -0.0007327229828447744 -0.0006764095239581035 0.00321631918736152 -0.0010900672491576321 -0.0005913671639179804 0.003111788507780517 -0.0014572681642404826 -0.00046088538150377135 0.002964831929712257 -0.0018542587623698857 -0.00029218994202536005 0.0027678815065458207 -0.0023214956334175114 -0.00010080320363186051 0.0026315963030959667 -0.002786155445177139 7.981186285725911e-05 0.0024750258413380796 -0.0032275911610392923 8.670702488650529e-05 0.0024746026170250728 -0.00378738916637775 -0.0001795494575909497 0.002779093669238947 -0.00406037021318272 -0.0006392974478370041 0.0034626448361458097 -0.003350189280178854 -0.0003087165285242544 0.002076646808424086 -0.002419232667799624 0.0012379553388612618 0.0015807818491401712 -0.00345511403523706 0.0007652832559766273 0.0013521702751376312 -0.0038575075229187964 0.0007263601272510878 0.0011546936294974733 -0.0032953930128575204 0.0007425948294021074 0.0009083309259984608 -0.0027520354896107563 0.0008260884761259993 0.0007197363265258397 -0.002483347617939321 0.0008975263325064048 0.0005058553421574963 -0.002244791702151112 0.0009365961300991407 0.0003466636325239539 -0.001996963928895712 0.0009321266724947779 0.00022634750279438426 -0.0017652334573060814 0.0008919018792818943 0.0001400996999717588 -0.0015494925447566703 0.0008185587837713608 8.21884746863219e-05 -0.0013543389607178285 0.0007198461771828098 4.5964823808322675e-05 -0.0011844767295534978 0.0006113657068236335 2.4460991205871307e-05 -0.0010357176597858622 0.0004889516334653232 1.5147015512695372e-05 -0.0009041792866171999 0.0003603271893380111 1.3938034736166866e-05 -0.0007902436561123655 0.00021548668152118755 1.4706182946869206e-05 -0.0007109562165313677 8.285490209120755e-05 -1.6005156752207927e-05 -0.0007423675105330543 9.69532615737595e-05 -0.0005523839861321933 -0.0009257961189766732 0.0 0.0036687762894807244 0.0005415370081580919 -0.0011030475582641355 0.003984422522351155 -0.000409765552661804 -0.0009940202719049258 0.003930533871640519 -0.0009592941327162247 -0.0009669804342809201 0.0038254796216374083 -0.00143240486253167 -0.0008564854849434024 0.0037192447477764953 -0.0018945556349283504 -0.0007179084251514407 0.003553318187557427 -0.002376061943715379 -0.0005541904564752356 0.0033999898411222126 -0.002898421042803453 -0.000349110818151618 0.003232386025854121 -0.0034352269533586264 -0.00016070456928226435 0.0031483577054026504 -0.003963399751593729 -5.7585093600860324e-05 0.0030622232400829633 -0.004460596483653615 -0.0001237052697639152 0.002983414440181506 -0.004480275081281825 -0.0003160134806010715 0.002876223547271791 -0.003694701070375178 0.00017068671460718004 0.0020422520127935384 -0.0031504813162188056 0.000954528124706356 0.0012483473540549905 -0.0033787014584056824 0.0008946347630533254 0.0010623664595732843 -0.0036867153927035295 0.000978264430388065 0.0009785845404208238 -0.003554985952531146 0.0010169703182549734 0.0007832099400995954 -0.003160298106891949 0.0010642977660268755 0.0005942629629376861 -0.002835727722263753 0.0011482406345993557 0.0003729299508661993 -0.0025299397327396183 0.001187989375165393 0.00021441912102906913 -0.002232635216937489 0.0011947761349873063 8.816834755813463e-05 -0.0019472097146998554 0.0011661609196577582 -4.303931593313548e-06 -0.0016723976858693534 0.0011003849358579374 -6.755906412758e-05 -0.0014098338666587084 0.0009993545834285841 -0.00010395748739379373 -0.0011658521906688657 0.0008770900618714364 -0.00011961401390486737 -0.0009437347928963334 0.0007291672161823144 -0.0001165400235654257 -0.00074458417340481 0.0005719178360030341 -9.86434989942997e-05 -0.0005749755218499318 0.00038730290312841836 -8.038856401577921e-05 -0.0004486631926270151 0.0001919769212609529 -4.95932403953292e-05 -0.00041322157773477974 7.472701171679086e-05 -0.0004051491476087521 -0.0007370313914237606 0.0 0.0050179957531488505 0.0014555376431318698 -0.001613463920230825 0.004697718174110868 -0.0006193581520416965 -0.0012507561633225209 0.004646340179599618 -0.001218196128103218 -0.0012828206005308731 0.004569948509963318 -0.001789095197131127 -0.001132387881656532 0.004421814408325817 -0.0023657817621816437 -0.0009923697613139553 0.004225921824168307 -0.0029145791205963632 -0.0008278691396921708 0.004030523583697773 -0.003472111513914305 -0.0006177219457466857 0.003961463340727236 -0.0040954375794610524 -0.00041076600078108344 0.0038498123342129934 -0.0047351802287958706 -0.00014378034103193493 0.00363371139629454 -0.0051646210012637915 0.00014570791125972232 0.003250888294016492 -0.005069534117809985 0.0004428791514507549 0.002406262378123414 -0.0043754875336818825 0.0002606260063644896 0.0013624840672513613 -0.0034282499612866574 0.0005005501294878638 0.001192286478753267 -0.0032883845149148947 0.0010234702414321957 0.001023201947256247 -0.003483157359685552 0.0010922717458834719 0.0009161997014524512 -0.003758250291810873 0.0013263068227821334 0.0006888217297898597 -0.0036049812291930774 0.0013419434160316275 0.00044316359581469955 -0.003194181509245535 0.0014193093424367115 0.00022591279388227414 -0.002817042069503866 0.001470287285464316 7.398848493416627e-05 -0.0024811179642083747 0.0015007702700038945 -5.7047330984501265e-05 -0.002147017016179283 0.0014967230141098194 -0.00015657076951289262 -0.0018149102478487089 0.001454708141923701 -0.00022716196023367385 -0.0014838541617178801 0.0013635284873293116 -0.0002663792768842488 -0.0011589536580037122 0.0012251410102640976 -0.0002772892500237101 -0.0008540050954554887 0.0010486675815377898 -0.0002622386917157521 -0.0005768072063352062 0.0008460766625701388 -0.0002229856054493315 -0.0003454655607777168 0.0006715819000869348 -0.0001885234989480733 -0.0001670499424848501 0.000513762921504967 -9.792557887094988e-05 -1.432196716194186e-05 0.00015070869469907544 -0.00019982168950671841 -0.0003735880305426209</DataArray>
<DataArray Name="stress" NumberOfComponents="3" format="ascii" type="Float32">-83.013074019709 -276.7102467323633 42.85384336326525 16.583596576349528 -182.09664068970204 5.765475070979756 -7.04370914883917 -180.16121840573715 19.2072861190173 -2.3241576403994983 -182.16658475525514 27.269047858078817 -7.545736899693431 -181.68328780266052 37.33787506856516 -12.649457000522531 -182.94414886090954 47.68917983926728 -18.125325785485224 -183.84086895537547 58.11906775044434 -26.591938554799388 -181.96775794585045 68.9951859827867 -34.37905908255749 -175.01772079583017 77.85914149758277 -42.513103055652145 -163.39122634118226 83.8049800268062 -50.75840051931051 -147.99300608396234 86.76136873242176 -58.101400653235004 -131.29363487741256 87.06379311105017 -64.16618294107919 -113.88405422122403 85.06972212130306 -67.89721344867814 -95.6462631282388 80.77549249798767 -70.47014824705397 -79.11524432136987 75.02177218700403 -72.4004565955342 -64.7056491134522 68.66279651890049 -74.06816960026623 -52.326990838996224 62.426215894026065 -75.80018188560399 -42.380820603646825 56.732607162253764 -77.41850105569644 -34.29936491470388 51.37783766828255 -77.93370229963584 -26.664203885376036 45.64693888483867 -76.69264737884482 -20.043773902772944 39.40113298494744 -73.62661829400102 -14.569403825356614 32.81335854056786 -68.97945248517371 -9.915044445043485 26.19329447835612 -63.21108414941955 -6.356869212634962 20.01490447249691 -56.43409959237606 -3.6247388500363975 14.774622707949778 -51.60649890555955 -2.1588865774701365 10.725544128042289 -46.53354875696387 -1.3178626036340422 7.602190940627966 -47.600781314676624 0.4377260166784325 4.2845724848531 -49.87954274196957 -4.560399061241609 5.533847663020485 -25.84369570761154 3.631180021390014 -8.894772852028964 -61.36135447187199 -204.5378482395733 34.034663684989226 5.35243248997223 -185.77894021111868 13.937719236438861 -1.9124496756668208 -179.45970644711383 18.872270536551884 -0.16211282198728583 -175.1821076822394 26.236119713557432 -4.015147881429542 -175.65802417906582 35.56915783472401 -8.067537691527363 -174.5623272080045 44.77206777657515 -13.465599965911494 -174.36893560064146 54.57238408709144 -20.615870368574797 -170.06930180494737 64.90905866666716 -28.740978675331217 -161.60173624789786 73.99656102016127 -37.75106987985597 -149.4110311356042 80.43103242688039 -47.0532834352119 -134.40965747558445 83.64067856486443 -55.010539586417636 -118.23881418366213 83.83524376487529 -61.29407743418852 -101.21100159254249 81.5282583805249 -65.3407076096621 -83.8611937353624 77.01933954813984 -68.20582918607434 -68.81240582145205 71.26797314740331 -70.20889196491338 -56.16761375796595 65.1287697530885 -71.70685220271676 -45.45256406563994 59.212952181929204 -73.08752567432634 -36.704618591104776 53.73968914127005 -74.12522254660215 -29.070782862305137 48.32648528240214 -74.20862655518596 -21.568588185757832 42.34136003000779 -72.90491588622237 -15.151630405283006 35.81031007975137 -70.02037160838815 -10.057130019216714 29.043261458638174 -65.64125240620675 -6.082568105037373 22.420253495144127 -60.02098299149321 -3.1270411391576083 16.37590509723355 -53.46507837455961 -1.409874646790609 11.491354151948768 -46.98299565462344 -0.3720295898481716 7.5966733318986535 -41.59003524593392 -0.052963633839585356 4.700025967879803 -35.14468991904596 1.95694753880535 1.6038851756796741 -25.292235201123553 0.09042868416567984 -2.2815821437806303 0.7263222179338449 34.0272560497454 -23.228030597338016 -53.08092847626034 -176.93642825420113 27.295211831226684 -0.9400641045253906 -176.0304327881994 19.53714093119079 3.9110567500617464 -172.25677273875252 18.502217196550664 1.8827186311589301 -168.44784958399757 25.372932835569074 0.07224602216469833 -167.3251720322011 33.61267369124553 -3.7161924099399855 -165.6603804882505 42.0098907547066 -8.55972433888325 -163.90917512803077 51.016971406015095 -14.848111034705205 -158.26508549847915 60.959323183604596 -23.247141444560217 -148.6685481852959 70.27832269881591 -33.01735523789242 -135.72915426996212 77.1286972552724 -43.27450936526388 -120.68813148358149 80.50599537599332 -51.794835649052644 -104.78114845693112 80.52917153374105 -58.31643328455705 -88.1727112943517 77.88868141724346 -62.60500117695418 -71.79874098501386 73.13898551088162 -65.65084937513846 -58.31469086721663 67.36885110605292 -67.640695903097 -47.4623622525622 61.44722436119299 -68.97684277289056 -38.40181622113073 55.86866782783706 -70.14129399218177 -30.84913530022363 50.649481493714354 -70.8447621129367 -23.713742417616082 45.225767566782 -70.68588134906449 -16.410478480971676 39.02493931035107 -69.36961118126919 -10.251915397813681 32.22837526624448 -66.5719347609592 -5.549002248042365 25.27416463383509 -62.288660990242214 -2.2062599391525417 18.622647406035483 -56.69880133315682 0.12105167583289145 12.697798972066328 -49.866258588333686 1.0628688227633845 8.051160125210288 -42.457961838803215 1.460810224647508 4.336046827872519 -35.57638248674294 1.6550226497945069 1.5097744664338033 -25.780970806324802 3.034112356376694 -1.575328711439276 -14.816119794839256 2.087524508351943 -9.30913931375144 6.484876941097898 55.0442656601069 -32.64264327404013 -49.17006053575389 -163.9002017858463 21.841918547238574 -3.4646908395082576 -163.5918476064185 18.28697356720912 4.676425283360707 -162.92495736184503 18.905286521666014 4.769073865965389 -160.30177974270555 24.42303675240762 3.224500316220926 -157.7689391628242 31.8190503846283 -0.15666850894419326 -155.63475344322518 39.57654244710686 -3.8870009356220976 -152.35305204136128 47.80282859528488 -9.442461229839914 -145.7064875336893 57.43047669680919 -17.329376970710936 -135.2960145656933 66.87081846335148 -27.798039171826947 -121.90605434295232 73.94648491005951 -39.23963381345285 -106.83627792716692 77.335852301108 -48.518814511764596 -91.15165577731482 77.0721641290526 -55.29879977144395 -75.11266880855479 74.01764626593105 -59.7171145638085 -60.05058524921832 68.97429691653119 -62.866974849095854 -48.47518838952426 63.17482696158913 -64.8490543642855 -39.48360531182847 57.51263050252977 -66.13684163391831 -31.87975039477915 52.32804249436846 -67.22763513525149 -25.200328665982482 47.417733803537196 -67.71651088980934 -18.30409805417706 42.0417701425131 -67.33069152193062 -11.0932234176276 35.684462934552066 -65.93474718812551 -5.240958855195107 28.671712980126692 -63.161831278697775 -1.0788380558110617 21.546165878672515 -58.94012189972601 1.6115640985156823 14.833588641621068 -53.41970247797321 3.1405868091075604 8.956489090361458 -46.37810844322746 3.4196357122717096 4.335961043615162 -38.52659264124891 3.3355449575150775 0.6096473131277159 -30.341702179215993 3.4065947685902067 -2.4683721119186934 -19.652676689404487 4.911135427963404 -6.450561561595924 -8.83846922412966 9.980991450601653 -14.97401594404707 3.5439511805141652 59.863712143808335 -33.05901171524175 -44.917295176301295 -149.72431725433765 17.248664652998862 -5.502107463540881 -152.50928975303478 16.89780537649991 5.875099144167713 -152.2450260283053 18.699057233315568 7.652235706750197 -150.16738648555656 23.3858523467446 6.295825492254764 -147.4053312070855 30.090309138940366 3.4383047966432585 -144.45617104726205 37.169973405619785 0.5268496925318829 -140.2666567015464 44.71070751795554 -4.1080350276901285 -132.91362603350768 53.96116544291527 -11.40906984600802 -121.89465092707462 63.51627353587645 -22.430415901586834 -107.99825604146424 70.81083480088765 -35.08469392831865 -92.70750210177958 74.15491417705275 -45.1608251532473 -77.14220352256574 73.50092178149421 -52.16302599745122 -61.76291345452415 69.93329168059384 -56.6325102009353 -48.24623340200938 64.55839940380987 -59.78393487308341 -38.75224726204798 58.7630612097065 -61.716479891675185 -31.64565845019562 53.42683515099348 -63.00404883235549 -25.42504282787326 48.69413876911812 -64.13965640909214 -19.509607565010484 44.12740628029305 -64.57943243671596 -12.791619562735713 38.81883512550905 -64.09361306842129 -5.690220980756472 32.31857793852258 -62.662024872388336 -0.19148936935595984 25.100001645639246 -59.891981636246136 3.3935146291013147 17.810290884637713 -55.67445840551126 5.412846746308951 11.031510022833835 -50.150730139274465 6.181049113130403 5.172803258743207 -42.9484486229546 5.835529124245671 0.5513272273158785 -34.85882671149358 5.271798683134865 -3.2020213467120775 -26.056967306520555 5.187531161276382 -6.531140294080775 -15.862295398083013 6.7660027632181565 -11.047781163051702 -5.89247941557258 16.352363979964913 -19.571906818442415 3.8864450515508935 64.20210896773084 -33.42511025571149 -40.950094904169745 -136.50031634723248 13.24341827226878 -5.876416848236914 -140.6917674910431 15.435968283676461 7.204158732942041 -140.81258067339616 17.779116005269934 9.789921774833857 -139.05317996570855 22.31542956813485 9.18644865135046 -136.05831934307707 28.42462833289558 6.692277141161107 -132.40599672437799 34.917398049705994 4.511999169008057 -127.4164664553293 41.80602728817305 1.150176405035161 -119.53739404962242 50.58569124224723 -5.339281979145046 -108.12164597391458 60.205220108241136 -16.684681210083 -93.76879854474201 67.71006279447894 -30.73294195845235 -78.20719240638098 70.95822135299078 -41.737377686983265 -62.720573784196525 69.76618886604928 -48.90540116013211 -48.18415762975432 65.52643858679595 -53.3562304768409 -36.71155557998287 59.78223891693247 -56.427774062659466 -29.61863812800788 54.06964048939916 -58.30545605948229 -24.39133519596544 49.176004290167626 -59.671904949706864 -19.344378226466198 44.97880431015549 -60.97059698888437 -13.926201871845567 40.791316102082554 -61.467333367824864 -7.1926385227455665 35.553959564518856 -60.94429909452781 -0.16710511001762285 28.915528603123963 -59.488490111880736 4.919037857064701 21.50667668692025 -56.712477623647146 7.860728993696277 14.071224369879106 -52.50516900902035 9.151009797784969 7.228219701773074 -47.00568629286395 9.16641726827184 1.3582613222773154 -39.77039378921498 8.24825840344358 -3.301968171483514 -31.617892467988664 7.283765180506661 -7.127994386975808 -22.63848272882452 7.162569473051022 -10.665957204337268 -13.048271401790323 9.528512576533288 -15.364292054053026 -4.183008798382676 21.4651714268414 -22.944399104341606 3.651544351091946 65.92382817142614 -33.5407217757659 -37.340964608790344 -124.46988202930115 9.735040300519353 -5.487244949961166 -128.06312732529284 13.654686028269017 8.44192506695454 -128.5455252564266 16.70061994892645 11.902643118532225 -127.02313237164057 21.15390471014105 11.924544036194895 -123.71812730290608 26.78965984959801 9.672079869521781 -119.60116560050251 32.78262140020823 8.182871674478939 -113.90068869832791 38.97740915384234 6.130726013458414 -105.69744962908054 47.20043609413425 0.7294605062385351 -93.98169045649934 56.872169835067325 -10.590785679950482 -79.11093325354868 64.63141217650004 -26.212907156059444 -63.2367502173011 67.74460169514109 -38.40081849115249 -47.97531131109647 65.78841229359654 -45.647646835573454 -34.605099000543426 60.675399934905826 -49.89024711665817 -25.628716330415916 54.58475062296065 -52.74241347493127 -21.077825235194542 49.10756053143824 -54.531188191115646 -17.578345799659825 44.815427680178175 -56.0522049197527 -13.455238813081161 41.24136104185455 -57.6320099816315 -8.337308582794508 37.45173496073837 -58.30879732776832 -1.4820134010876664 32.26771150846855 -57.8414575677322 5.453395206259724 25.476197972341247 -56.40658575269849 10.03626766849015 17.88243804055587 -53.63176425594955 12.295534080534047 10.320220356996973 -49.436555142462446 12.833906385669454 3.4267791538150147 -43.968512774267566 12.134457850098752 -2.454643427209276 -36.794082449131714 10.66382601208928 -7.1431616822678885 -28.71387854232436 9.343307794735333 -11.027646083115444 -19.945427321279396 9.174552942944558 -14.675774187939854 -11.108447958575663 12.132807732703082 -19.284564219932886 -3.2434155725789378 25.69166408372048 -25.77862202839526 2.614198405807798 66.5558636097281 -33.40795870386549 -33.537293778995206 -111.79097926331735 6.569427654382299 -4.608096660202598 -115.09972293976837 11.686019452719833 9.604129584487758 -115.64785795661578 15.497200242593907 14.053153656172327 -114.14023023747575 19.898853176654935 14.5346994044328 -110.61796527353505 25.184164473065593 12.484013418884238 -106.06540626914172 30.731313212924245 11.648739251570696 -99.68332354957451 36.2068693594959 11.029886306389784 -91.28011996515278 43.75949628921748 7.014896551360565 -79.30752763268012 53.444504774659535 -4.080946421672788 -63.85535975590288 61.52350002991649 -21.55470022778754 -47.53548055634245 64.51053304505892 -35.06273264408664 -32.35317447287937 61.578738235378516 -42.1399560454739 -20.47092274252973 55.388354549320724 -46.09717849337557 -14.711599024871251 49.00993176946085 -48.7255170230785 -13.086240084861243 43.935892159998886 -50.47893640643619 -11.29657494207796 40.3980713145362 -52.245417216302855 -7.858455919897239 37.51592707387127 -54.18086392368377 -2.786767981059322 34.11983391720245 -55.12294017115508 4.335934172108523 28.960049327088417 -54.751441048581746 11.21584151016799 21.988813211882206 -53.37713775905281 15.214898448383742 14.21500216103306 -50.634712021498274 16.73570576025818 6.547183611263928 -46.485932135208415 16.483308551507662 -0.3809370590806123 -41.100339759138365 15.069999677879276 -6.265322094983343 -34.066123688144 13.057598710789817 -10.973238857920364 -26.186933126539184 11.395729370869992 -14.893799424361088 -17.76716566764493 11.218481668597974 -18.575057725111566 -9.648771939774463 14.67370256043466 -22.899600900985025 -2.5718002830243485 29.337399322843112 -28.233510166894554 2.023072139148706 66.66147035787421 -33.16203547606335 -29.505565569567423 -98.35188523189142 3.7086922948382233 -3.1390120849572902 -101.67040317041112 9.778837146847454 10.928852114680545 -102.08695010449642 14.158151574039163 15.976658299945058 -100.47454794500878 18.616022142852852 16.869348649159818 -96.77422090765974 23.653678514619077 15.071914116967037 -91.74550203577675 28.814275618273996 14.449791658567985 -84.73765945641283 33.589342988946754 15.234781841274557 -76.17878432187234 40.266405588047746 13.217773895947708 -64.16468695698737 49.811452414268494 2.749728939449323 -48.152512499979466 58.25432096494679 -16.40457105822313 -31.307629281191332 61.11844524283198 -31.66057880189911 -16.49381161540841 56.88966673419986 -38.567949047147714 -7.028354203725904 49.29831610740821 -42.1204769392865 -5.36878277648981 42.81000353532913 -44.24509680254049 -6.168966008340628 38.547610755559184 -45.998289850802195 -5.529101007437797 35.99050015781565 -48.08517850902419 -2.460559774102464 33.860539046254 -50.51223510592787 2.871520588646142 30.848468322079654 -51.82597627839799 10.374172086854628 25.64351701031829 -51.639388545985824 16.979650355324875 18.44926618201366 -50.35515608973697 20.342389817927124 10.509807287781493 -47.670265465994305 21.048140145086936 2.7704822196393812 -43.588644572251965 20.022214153644793 -4.156803134771595 -38.320128358963565 17.93952903625216 -10.014603081141338 -31.485927552142442 15.436694147768117 -14.710472749971622 -23.90347619533609 13.475148244237445 -18.616050668959577 -15.940454158077827 13.247990623535657 -22.222733596270775 -8.533723704371589 17.009184047180945 -26.10909922996614 -2.2288409709525503 31.746655924119736 -30.220244530624 1.7859854694245705 66.00210757139915 -32.967959677302474 -25.36454986788703 -84.54849955962342 1.0855270707236413 -1.343984332919451 -87.6302212254962 7.916948830119026 12.449112391955833 -87.87268707368672 12.743897790800645 17.978024385832317 -86.12093551167195 17.28058649228747 19.267995728735187 -82.22954561839046 22.11350306845794 17.69202239711093 -76.77439421334313 26.931441645201357 17.019625922627654 -69.24493952297064 31.06475118108249 19.63968308532433 -60.08495262503005 36.60727869251937 19.935451052519166 -48.169637715873996 45.92004182100767 10.084141081892234 -31.6060171936131 54.80396511606365 -10.914010259882533 -13.850467590604215 57.606865401289866 -28.097840550447028 1.0596129853943346 51.939943059013956 -34.365412370945926 7.648577715472436 42.71239609210786 -37.71228665983385 3.656323020139677 36.315774257604716 -39.47696005703086 0.033757517317317465 33.11022441473402 -41.335294048640435 -0.3017583298797337 31.636408601620808 -43.77198560675156 2.6728104224325726 30.260873111820647 -46.825361584562124 8.444431302189347 27.626820518332437 -48.44343209897721 16.654667095300386 22.279613012095066 -48.49022403999943 22.908160962231545 14.843515664754449 -47.33395414234684 25.582120045733973 6.747375394084914 -44.75783255129127 25.39893999914145 -1.042214611212391 -40.80947931116535 23.5490664373769 -7.94193616920564 -35.71504915398441 20.779348865354105 -13.756320079028985 -29.154209507860486 17.76488622445098 -18.417580295926225 -21.926452952677682 15.494741819335296 -22.28108808716728 -14.465981764362667 15.18038527561523 -25.752871355130594 -7.642122731977905 19.226587180362415 -29.148789968142353 -1.9028092702127104 33.7782573956866 -32.07791286272596 1.580553905513753 65.06184751210135 -32.95850543643558 -21.085341363848332 -70.28447121282778 -1.3178122232092626 0.9095488957763145 -72.95858895320518 6.080251704211853 14.054388889453165 -73.0323032534439 11.336824851578847 19.70394711079329 -71.13660533045442 15.968618874638066 21.520709402856866 -66.95762925330078 20.664089616673873 19.762525407895208 -61.118209792146416 25.26096761483749 18.84484809170055 -52.97210500630093 28.721802291954305 22.65538332328244 -43.28483018986799 32.87124371891124 24.874649043280847 -31.30536511429723 41.833000535121606 18.835755222532832 -12.676757355234816 51.565746516615484 -5.8421651291572845 5.824366284177888 54.030377553574496 -26.437078328904928 17.9051301669923 45.48291183800209 -31.012988878277675 18.264055723904963 34.47013224252443 -32.75378871152209 10.087271149158411 29.35630610314007 -34.07838406993634 5.53203341740792 27.739574078140265 -36.12151306283515 4.102640268606171 27.37827928836762 -38.991006980978895 8.062604274106203 26.903300802852453 -42.82194191560218 14.521183770312382 24.504537965508735 -44.90147012180196 22.99772232850027 18.87001232538153 -45.20377363241711 28.835281256210227 11.174914270191708 -44.225916270179695 30.542331029558692 2.9463070201033172 -41.76505074008045 29.50769037492468 -4.831153312480213 -37.98114486056288 26.86932117348139 -11.646542723974715 -33.09678842750355 23.488370730143476 -17.368614803590948 -26.853377267504413 20.03412499546405 -21.94446556267179 -20.030225430153234 17.4807102002149 -25.706438564945564 -13.117307590913887 17.017192012358365 -28.95758087746567 -6.897028354061224 20.938032919243142 -31.780930878459333 -1.7574774637460902 34.62717878117864 -33.591213461789515 1.2513540675030725 63.12658741562884 -32.79705094577646 -16.62288471621707 -55.409615720723565 -3.524834541644478 3.3490035491344905 -57.76922953589319 4.299542757696596 15.824476245210413 -57.610646671852066 9.917552175470272 21.606474088560937 -55.47645852351769 14.61245232116042 23.8552902726062 -51.061488864480225 19.197529616835972 21.936702975890615 -44.91454563426497 23.67004411536635 20.649423512142697 -35.668618608420665 26.481036243229678 25.47516245890695 -25.638599938171872 29.186340650797867 30.656743510682265 -13.60848132292313 37.37301684878844 28.034205446546046 7.295176958183415 47.92034417351719 -0.2208087746416183 27.4100353835242 50.000648727418636 -23.187104060797672 38.6815542906307 38.095267185073745 -26.430932279604157 28.994741529509156 25.74038733155588 -27.561687016099444 15.465089606789174 22.48555279511762 -28.506814662482107 9.968716728786154 22.418416370024026 -30.672267508586906 8.149064448140301 23.251060404290676 -34.279873107539835 12.937515920302864 23.72506857654613 -38.69952716517329 20.86982294245079 21.347788846475055 -41.267105398942974 29.587870062637233 15.394549774225172 -41.802979966293236 34.97168271190901 7.409338501058079 -41.043721733820064 35.62740515969685 -0.9248740663528431 -38.776211898720504 33.64296119598151 -8.650387493953595 -35.227705783195056 30.176400659888266 -15.355279641929753 -30.629419833935742 26.14846467471205 -20.95912180801844 -24.758211921016326 22.234068937688 -25.43001584114575 -18.386522641423007 19.370525220387833 -29.064673101182873 -12.002759769359841 18.731985023967674 -32.066139342168675 -6.277730482403701 22.498102491170076 -34.318486769016914 -1.5626586872741903 35.28809628079397 -35.088880598916916 1.1657474772494432 61.062907368157106 -32.80699336548164 -11.998362893494152 -39.99454297831384 -5.555478095824559 6.126327404255386 -42.003234557171226 2.625595750628031 17.704242783105578 -41.63006680255989 8.540625446681597 23.49698157543431 -39.20030444421417 13.327728414905796 25.611086321141542 -34.62977267350692 17.852806583583416 24.772135600699492 -27.857553080371623 22.314358998698864 20.971995563925738 -17.83525380502037 25.100504991835905 27.085465381847108 -5.507063364826097 25.886157928004877 37.25096954714784 5.921187299740764 32.64357885426413 35.403668978212565 28.487259368039222 42.74066875763304 10.062460427648308 47.54201987898251 42.839906017540265 -15.9895094713751 54.26991583367422 28.27089448777535 -21.12145861274432 32.95827939696442 16.773240468755944 -21.54330265073957 21.449342333454933 15.920336589235568 -22.627491075200492 11.669139271553366 16.97710050370364 -24.52745432135831 12.72873331756085 19.683331934625382 -29.127430537556336 18.506353049105076 20.787417107148347 -34.34625358710288 27.589124453124718 18.21093677027231 -37.33533369124583 36.55577891507875 11.823058282395568 -38.21059337630177 40.77955302115275 3.530600732754183 -37.64289063686688 40.42317784556185 -4.8253727273348925 -35.6083267686718 37.44457169853748 -12.42458260720439 -32.33709606470602 33.22913497820082 -18.951567602239518 -28.068972916502084 28.636908592329497 -24.383740371925512 -22.619619207231178 24.309516485897873 -28.699841382519857 -16.742237895000393 21.153381731371578 -32.15604957009317 -10.920988058406497 20.2305586442559 -34.85702300714715 -5.728254143713041 23.5265261255741 -36.52998086814279 -1.487966577896584 34.94147947989797 -36.32834166635674 1.0037770946671856 58.01283849800095 -32.72681056687652 -7.223126384165737 -24.077087947219127 -7.420279556179565 9.089937501601874 -25.704326782908744 1.0402560417449118 19.743040274499442 -25.107105414751985 7.179956100547298 25.46323636671417 -22.39178681752727 12.054959663883603 27.520032481038193 -17.636167631021024 16.51939148999992 27.560392502166202 -10.41727358056262 20.997556642174118 20.90829679250542 -0.7037862211699224 24.273685180634484 28.01968043669499 16.455736017851482 22.420202590458246 39.87766937708521 27.327733689299926 27.507802365501203 45.980694244678865 54.45689727777787 36.18137090375689 16.756441670360534 72.12148546449012 33.08545483843939 -14.002893158909302 73.21568587321664 18.336603299860805 -18.347739446609545 33.0871817168421 8.923468950023677 -15.327700817801139 24.85185011319406 8.98432751448282 -16.040492590154926 13.623590150513182 11.993752858320452 -18.538612627101298 16.15180762484901 16.50732812318171 -23.828745474684165 24.533273141326127 17.924883116509662 -29.920185017073386 34.580361334783774 15.050969676936585 -33.1851197557084 43.7854205887939 8.065360999208313 -34.38220645701986 46.73537425736731 -0.4695769267655554 -34.06503940581277 45.1724520480323 -8.787016738296154 -32.32460336044082 41.191434404219606 -16.203264535674545 -29.421347195349107 36.18664383459982 -22.5063174689583 -25.552153446271518 31.02746564741129 -27.738920537591962 -20.58464681143012 26.282844232909 -31.872223037848382 -15.235292465355966 22.814310540199045 -35.12712163873159 -9.9667206416165 21.57435793616725 -37.51336214950637 -5.238467749198934 24.33736091317686 -38.63216069817526 -1.368575225765742 34.31053348267768 -37.546738317583134 0.9281427956987329 54.643130006956035 -32.753682760342535 -2.2987768669746487 -7.662589556582163 -9.128219415267449 12.284502834104583 -8.907399738270014 -0.435717964164141 21.912976683908894 -8.083986317361557 5.887916237233975 27.36750221648567 -5.120235132075614 10.847665549355488 29.48250578531477 -0.18161427458728063 15.285716748028074 30.005430007389258 7.383759815474873 19.856656744419148 22.03278862390981 17.181857657883732 23.749089022530722 23.068023935723108 36.36978100183676 20.240104178133866 34.53151029621908 53.43258640171716 21.195703916868524 61.648389159544664 88.16892514874326 27.227622191418074 6.662547987858225 92.72672709198059 20.438351718139053 -21.947643353346745 89.45188535014239 8.186917836769549 -13.895825842372066 41.0077770325896 0.8949675731570396 -9.47601341008156 21.09090601139666 1.5145879232590849 -8.553103848759633 16.295889131966714 8.096676654701795 -12.278580606870513 19.825501565204803 13.702222766225693 -18.318112349425338 31.392219136496657 15.269469905249766 -25.081292057681246 42.63708192796075 11.723435899246365 -28.768328285062104 50.904373706982895 4.079292318287449 -30.175828977408884 52.57435245528239 -4.60459708453707 -30.175871720694214 49.532084517357575 -12.784978456071563 -28.77544116292331 44.64022130467992 -19.919041065921302 -26.30199458575424 38.90001871460155 -25.941257004071215 -22.903360211321715 33.21512109304834 -30.921401627969885 -18.47067794412439 28.107553394916724 -34.83267948072894 -13.699066275278257 24.314096118993586 -37.852526925642294 -9.012267557140834 22.682819088381507 -39.90753420220755 -4.777788165854883 24.701830072362938 -40.49883606131545 -1.2986999509134733 32.98409821785031 -38.61768379067608 0.8199894215833208 50.503476812210266 -32.74011156434881 2.777239332153853 9.257464440512843 -10.679604696113216 15.670554272101207 8.366332742796079 -1.8026596426429728 24.203521951684127 9.414046021883626 4.642766194317633 29.360476676381708 12.590902683629075 9.669105392579166 31.546825593286588 17.643664132300813 14.128443146102414 32.508407701982435 25.3992169899215 18.793059838871628 24.672036165390992 36.71333336300668 23.990182754916564 20.44830163676461 57.425281694922816 21.591997221255504 32.96171779563516 92.08725417474378 16.371010665692626 55.221393690386556 135.22677413409804 17.09615665233172 9.469642383564072 129.26609803055922 10.236782431705064 -15.307227491541717 94.76569132944124 -3.2234255065457997 -6.270833456965773 44.08961798283846 -10.020954182905403 -3.128464590068666 18.995141973269583 -4.477135602623867 -1.513365891611456 16.74007104451764 4.845079971324419 -5.747122820582296 25.24239121990139 11.401482714892788 -12.916493042654626 38.593324653547086 12.655328326161289 -20.022386200728675 51.22342209183131 8.046809917433782 -23.981346813632246 58.20242542663527 -0.15411519738474722 -25.611556948781757 58.03193718255139 -8.916388954849328 -25.89893887057767 53.70566088898826 -16.811393211720294 -24.9484768754191 47.81277782596773 -23.576456304325017 -22.971606493912617 41.39643873822381 -29.264272362679375 -20.12835711030079 35.21751601426109 -33.94224027275098 -16.298358121359055 29.76069755367965 -37.601486126292485 -12.154041640339933 25.63734999959091 -40.36157470523867 -8.07018976855944 23.568731396381594 -42.08301520387284 -4.327221939537813 24.74690338955991 -42.190414779756225 -1.2187462763738992 31.21055160745156 -39.6055781145843 0.7508116968396905 45.80398171227574 -32.754069330900975 7.9922194074482995 26.640731358161 -12.0902057563685 19.23693783250294 26.09114686018044 -3.0469487660324144 26.602731386014348 27.36628325642272 3.455881254552934 31.391942786655363 30.577205984111753 8.52476625858891 33.6586142120231 35.65507270065652 13.053280746157666 34.9889684722301 43.21600828099961 17.794207432177654 28.215148610011163 54.382100716366715 24.93501288629821 20.131676328917592 75.92708087707847 26.199202012813284 26.308536727706084 137.4733302077748 16.382185773798607 28.414807612386902 197.78386324447473 5.224365090430831 43.934700668852614 198.00881549027147 -3.2750626280370394 3.5799162521808867 103.97546859718715 -15.910927215186074 -5.209032200258247 20.899035946569793 -20.309075374354432 3.2482097575960935 17.636687795520835 -8.820262130705986 5.515061250543601 15.915663694038551 2.0582309196008235 0.7616438991171499 31.915542752320267 9.713178076928957 -7.021229966686612 47.71751584363203 9.741841193189483 -14.67461575159923 60.19480073985178 4.047358241653233 -18.51043219447977 66.06323657286467 -4.744090408177268 -20.565928558261948 63.09345392181239 -13.40236530393719 -21.16413737114352 57.64400217270843 -20.84828916287849 -20.76968512801217 50.72160971370369 -27.177318395084118 -19.37754212782956 43.65918297980571 -32.463131369284284 -17.179836435422175 37.03863706489915 -36.7981187965915 -14.020662706947892 31.249256587756594 -40.17564946682982 -10.5544702206386 26.799278913924134 -42.65727958657711 -7.108350915632503 24.25110295371882 -44.05244856097255 -3.875413563178766 24.48765540993291 -43.72951348555554 -1.1377129798382803 28.99443906355991 -40.538588034602974 0.6918138596050234 40.53600597858322 -32.819240401617456 13.35695638153183 44.523187938439435 -13.358011653956742 22.984369725145207 44.29319511650269 -4.193048088851296 29.10277266602138 45.765055808380744 2.2812869781924072 33.32711232047606 48.77160047874327 7.304831850535367 36.034697503462084 53.644446116705105 11.770809592869897 37.25059262973183 60.45769149915588 16.56082359987076 31.953351330485177 67.59327263623494 24.33862942426915 24.04197636871502 82.36550428320886 27.069837091980666 28.953120998761044 168.8593325242433 17.398178704097038 30.478177653860243 304.2296379736701 8.86925051266676 95.9441453977943 384.4144185495638 6.617075921650578 55.44249947277435 239.78676097675296 -7.181282873980037 16.972211582788113 28.522917858500364 -18.09298468355891 9.096380877308487 9.90906246253045 -12.419087138143473 13.569831144251143 21.724997144235342 1.0958965315650298 6.389754063642741 38.59883726287615 8.040856103159564 -1.1141323984213187 58.539200467959624 6.367056531174093 -9.121575624201412 69.45574375057504 -0.5281409443916109 -12.661005495460703 72.6819111846492 -9.888643723627288 -14.810536820404906 67.67647349755967 -18.01961301684536 -15.847370918389373 60.90970548902022 -24.868852189886944 -16.024633993878933 53.144134588516245 -30.643569076858547 -15.306529507131096 45.529954800207 -35.43433236011039 -13.853902229137123 38.54051659882712 -39.368694806919834 -11.453932610431476 32.462898184419984 -42.41740022763094 -8.753238789463671 27.69428705006925 -44.594491049445274 -6.024453230349467 24.623591929213962 -45.6682594949291 -3.3682195753607225 23.8275601348178 -44.970799283741954 -1.0624417349025599 26.206328728928693 -41.28581642692218 0.5728886112010709 34.43687311781662 -32.806510472777056 18.897078169051927 62.990260563506425 -14.483749060207984 26.896266362285093 63.046411790752224 -5.226825167377642 31.710494670717573 64.6593938772654 1.156991597147133 35.36189543118528 67.4789415895653 6.016926341254383 38.665551450078155 71.91750962165861 10.340541533584615 39.55385739616089 77.8304521520751 15.18601106806557 38.01048106125785 83.63929622219474 22.31931185805656 35.45889900372789 95.4255917194555 24.491214321782536 22.66761757466036 159.3270903336789 22.69411537064799 21.559647669407582 370.86402121428546 27.06276455987981 151.43768599346217 606.5712316436611 28.720040034077112 161.47962931989207 505.49995104337063 -1.5166534615507001 51.49133675901011 83.60663170284445 -13.018934469415166 10.672750840351501 -4.081127380377638 -14.640052846533504 21.37357501326166 28.65191706288545 1.2986469758565597 12.694939871492203 48.30124086528965 5.79637320967244 4.978510608849248 70.34872433124222 2.7268741232321445 -2.1595991680172126 81.24321216850333 -5.965101590052285 -5.9653135996654605 79.08732920523815 -15.401085244924225 -8.282775803787494 72.24432970764433 -22.76247658393601 -9.938356322845458 64.00258836119345 -28.92335090822353 -10.80196900101745 55.389211267557684 -34.056615588881826 -10.911994727826027 47.23031501833786 -38.29741220637145 -10.300779252757124 39.89532478335882 -41.801802165153326 -8.752913142384276 33.538828032528954 -44.4983594301889 -6.87802185413053 28.461743073238395 -46.36726409242639 -4.902101574844769 24.8669920050528 -47.14412070629274 -2.8432461775363906 23.01854956829063 -46.14480805966756 -0.9670195628557554 23.201017865117517 -42.08901204059714 0.564286566685734 28.001210443786963 -32.97040092303584 24.63598270634212 82.11994235447372 -15.459215408325433 30.85711345367445 82.49162411434315 -6.19746502983477 34.119185761241646 84.04287488383983 -0.12718521447590603 37.31885070673758 86.55147552462118 4.34882516963305 40.73714123259897 90.06056614980837 8.390156198841764 42.72312243598245 94.86315663760949 13.150216566845438 42.75005467918502 101.59352732320514 20.245514641133543 42.14192527978504 119.71270844929303 26.953772604367128 17.36014289595666 145.38703568220538 39.67581625024725 43.835537477065216 375.95388531210654 33.382609911350016 144.78020524962446 600.759966360843 -13.910200363871871 192.3801868403846 732.8003950522549 2.074820742543757 99.99408603322934 382.55544097119497 15.986096444593109 29.436102322914017 41.41455630825899 -10.325216549452993 24.795440438999638 30.678624233000555 0.6815446814189247 18.95225315437214 65.29124559240869 3.563519808911017 9.993949303976017 82.42266486900901 -2.2982082389971383 4.793284926937982 90.25044256294399 -12.92941650386743 1.5689594809529872 83.92177084734554 -21.347021504630874 -0.9045385535484058 75.46919169662445 -27.675610997996856 -3.046566019951115 66.02071132689021 -32.90740513282834 -4.619847115874286 56.843911886864966 -37.223910802386236 -5.640773245335875 48.29566634256855 -40.78956166746439 -5.9771652101455075 40.731889208915106 -43.767544153965915 -5.414527802178444 34.18438578009865 -46.04048626194182 -4.511610774300419 28.8302865220274 -47.55799352639859 -3.447410633629646 24.71064439953463 -48.03905621311082 -2.150620266506259 21.758377719526067 -46.80867444212177 -0.8528569110987592 19.599732625818785 -42.51106820243479 0.4031869318771921 20.476247963366074 -32.920000458741704 30.60458298956728 102.01527663189094 -16.27551824169495 35.03032881213496 102.99246949105371 -7.0289670096625425 36.677394110847786 104.40727609014169 -1.4184948230906547 39.4434242780485 106.45346474035362 2.5368239417639877 42.99018726938239 108.83854120314598 6.167584718807042 46.20517712093013 111.8405622999849 10.738094780331433 46.33347627615224 116.50166663614979 18.31010888504347 43.54178350147382 125.66671904765657 30.506595695690965 18.225917838269698 129.71084213383253 54.70830193807127 88.36997742254894 436.0360733061498 32.54292137313577 117.43532812225965 582.5445113926945 -55.886886759535955 130.1355656921528 691.6307388852078 32.40803397905067 210.80183009006564 830.8741296533208 18.127681033850404 69.35075557827932 145.23980587897674 -14.304490024323286 27.473181860407884 36.78357135821807 -0.06285852926905071 25.28453381154836 83.27303808722881 1.0820600331755 17.18251586113806 100.10884551861211 -9.050716972991202 13.721091376409564 100.04686110263158 -20.633602488111645 10.333092996997301 88.87829479072762 -27.5550981324719 7.558130487038891 78.71092123038243 -32.73913413203649 4.730980935035074 67.9767456550251 -36.92776724460391 2.2210993766284126 58.17227400931873 -40.34068596100995 0.14559816708977635 49.25209249600974 -43.19253851265473 -1.300373522471748 41.448425603532705 -45.60641301372292 -1.8314153564561 34.72439679385733 -47.43958435268257 -1.989296687936859 29.109228025435357 -48.606363279794756 -1.9120018906654082 24.490011913133664 -48.825028122817514 -1.4137958436923599 20.468800797102283 -47.45528292463522 -0.6923827734615999 15.95402315004872 -43.07287141466431 0.2795186044251503 12.74081012146783 -33.196841264520266 37.02211368894574 123.40704562981914 -16.868922508509172 38.90060743078194 124.7386867807364 -7.933211864296326 38.61335414604584 125.90007884490383 -3.157660863288868 40.87060011799589 126.99279368388434 -0.23585067263467965 44.929736211044975 127.66593878242129 2.5363546716880756 49.200780087049736 127.58967810055192 6.302042821856074 53.33085976195876 127.3514775643857 13.55075215582434 53.58619611120843 116.20971602619225 24.2953625329883 40.18409347945099 82.34288016851382 43.046658757954276 141.63392999906736 432.89106212461445 24.78016086058655 114.94346829370807 777.9262607615055 -7.613012257347513 68.85106057780517 538.8903987233477 1.0393836207089129 241.7555446813296 843.5369828229784 -79.43858429773428 90.75093341120002 188.9547034181383 -27.528027023533248 33.773347900661705 69.06041115062635 3.720265124931676 26.751476956400786 103.21280183686115 -4.821327110341544 23.33993109853479 112.6380870684254 -19.424632105035005 22.96076607883554 105.26603495632492 -29.419854109801832 20.03516624307246 91.82134778018983 -34.31306765568279 17.256753863518263 79.99823824966575 -38.00939032783174 13.909943657207286 68.64899559101687 -40.8625195783443 10.495240529139929 58.42051270288989 -43.1520713352429 7.319370298087163 49.335388704968906 -45.113312735539914 4.636900429441342 41.44820488913422 -46.8127711692387 2.839394623413442 34.65305485769621 -48.09156103705214 1.4114990696671192 28.861410131246434 -48.83023266461095 0.25541733662578636 23.829347978091675 -48.75622980686341 -0.3116396288498251 18.877789234377808 -47.31252153582965 -0.4754023406582055 11.846788156486003 -43.06173681747772 0.0379783033814971 3.880619087859221 -33.113495585357526 44.08679708385308 146.95599027951025 -17.16933232068065 42.697581212546915 148.2942301324499 -8.68571094909245 40.400507376627814 149.37582147548824 -5.127202398753666 42.32425856321659 149.4101216620142 -3.549326178316013 46.81807209593968 147.93327888616892 -2.0307605945613405 52.384866164906136 144.42406433689274 0.432019976088587 59.81444140026636 136.67877191159334 6.025325457959818 67.08053747874345 120.69770464692766 13.145325398382672 71.63825800854418 68.43809673201102 21.465772922167353 130.40771366102317 299.724074781453 21.20220374674392 90.655517747309 794.7796403606483 33.00544073748971 149.42234127098874 763.4099161971742 -70.17016973363542 224.52577885713214 808.0543959253904 -139.6698826146892 75.30623828618637 198.13034105789765 -27.784647246753856 28.05364754873095 98.16699751352228 5.752003162852395 29.355389984451854 130.26467730025425 -14.973106571619546 33.864136977041916 127.95461938590519 -31.92344383945102 33.54724635490315 109.51822552239867 -38.530665592848386 31.54541853985816 94.61703045394437 -41.447373352928565 28.44935507643009 81.05507706121338 -43.462865923051055 24.400227680931753 69.02553215033215 -44.83441766930451 19.938009031903892 58.40577231222334 -45.90445422672492 15.48531021860133 49.16527569397846 -46.88246097289269 11.397899159897701 41.21437592648554 -47.79486667555975 8.170425197012134 34.37553861510106 -48.46478040097493 5.325030159640708 28.453535667235155 -48.74639999217693 2.771240628673664 23.065903916437616 -48.38846159986204 0.942989554679154 17.275863798806345 -46.96132785395405 -0.20867727978774742 7.88809761982138 -43.0486640907607 0.031117805920620745 -5.2051240469577245 -33.3552350040717 51.82602384838961 172.75341282796535 -16.916564191209908 45.740177353729194 175.14985065805092 -9.369692541757862 40.886000907410306 175.56225595072937 -7.954583503753509 42.89828767146252 174.45559673544253 -8.333240421817672 47.59190741824465 170.40339431420375 -9.028309302189896 54.934884701393656 163.1481226753121 -9.107775073591027 63.45625503744253 147.45761007705622 -8.32050777224917 72.6131397515452 124.89760707103585 -7.272659538975842 78.16209086886477 74.16556612343535 -11.709280213980328 75.92630680303282 125.72953660401933 -16.855841372397148 165.18046549796145 518.7204627455475 -1.1397657426527454 161.56132634861055 925.7647941577429 -88.04580660042123 169.04566590814 1031.987758695718 -137.65262162374194 37.802220837563084 332.6203165175917 -26.42867010995689 16.720567783188883 152.42415785464914 -6.1889490544315535 31.351427780542153 149.6863533004179 -33.06577737457636 44.486695254342365 134.54464982315014 -46.5094303797803 45.35527293340422 111.04747313259858 -48.4643428392695 44.52186267686844 95.28959676663519 -49.12674281317001 41.3006654400027 80.65139560788911 -49.199665223169994 36.768280382985736 68.17685965097948 -48.82962029972992 31.31508705322434 57.36545397050317 -48.45318966795603 25.570471150418836 48.12813489065118 -48.22820542837105 19.948613442443076 40.23516116470456 -48.159478810940996 15.094887272072654 33.46054351964485 -48.05416933069731 10.54199953742739 27.52090045011882 -47.75490882014338 6.268026700911607 21.918610775482964 -47.051298473984126 2.8257279770554184 15.525080267580792 -45.66632776006482 0.3259059592069642 4.223569982849161 -42.30156689316261 -0.5554899243774631 -15.352659478469272 -33.52610268416485 60.46345766288053 201.54485887626842 -15.859740574006965 47.71127213249007 206.20847043001118 -10.078283672256722 40.43688596181964 205.7746828730506 -11.338005616713394 42.24380306979914 203.4353847864484 -14.40640924208575 47.56987117266493 197.57032434894322 -17.78827398955807 56.04902209670114 187.4414928519373 -21.29228088068712 67.22272222733328 171.8532158259943 -25.389008308774546 77.15129839343514 142.97114235544652 -30.450810573107614 88.5144199308804 124.51630966222409 -44.62652289508975 72.80833281827859 86.20220384509801 -58.46999889958202 159.04256666100306 264.17245276582287 -40.635034872218604 40.10046027855458 678.2996373115523 -67.03729485464534 228.20371091210782 1095.9658897792565 -158.4499501217162 51.53102643296424 460.0527096657756 -54.17885467730041 24.308378401006124 211.65003812056176 -38.83491584846029 41.47707718194754 171.04019034627666 -57.01650406262217 57.369678438552576 137.36301100475146 -61.458621567020344 59.41175773685037 111.62268807143683 -59.0887412246071 59.10596515544649 94.94107141286322 -57.33510456245382 56.03749050970291 79.41067310050263 -55.263661292318105 51.059275455887914 66.5456322708401 -52.99205160596281 44.622047328902816 55.614286701085945 -50.9781283576644 37.53701902783672 46.41362832295063 -49.36203628612474 30.25395252385787 38.61846166654343 -48.12892922254481 23.60792424712729 31.96303276122853 -47.07239661025466 17.09634226302659 26.102660616541982 -46.035650202161136 10.834955267658028 20.520803517792885 -44.8704299632457 5.425966474828042 13.891678190963288 -43.55868390175554 1.0655365492200741 0.8280419226414428 -41.04106311290761 -1.5240151367665353 -25.46722039961555 -33.78329672459275 71.49417337449182 238.31391124830606 -13.097854961320351 48.16351493563409 242.17694314952618 -10.841518322735972 39.09306792293719 242.22069937902478 -15.435092884226295 40.30452339979116 238.55991968664569 -22.126791082773764 46.55119121258641 231.1948458798094 -28.737712263539326 54.87074818390596 219.03739000450753 -36.53091505098395 67.86454238754223 203.2491955405229 -45.29355662964907 78.43745885489348 177.22472788005118 -56.353103576873195 89.28875004467207 172.4918006418528 -73.95913207002292 77.954743473288 141.8034545814054 -85.77722818936708 73.06763817985214 141.80393361766582 -95.51354467748438 89.76783825632302 351.3543898230756 -100.4698635853483 271.70300118277294 755.7796276985596 -160.4592247360785 38.7134828914032 465.3406109799977 -92.17181647637446 28.584452574775497 225.7817487566281 -87.77420728908565 56.953755859472174 172.50375444777455 -84.54733813171443 71.586289103626 134.25652773092972 -76.5345058439781 75.55369587952843 110.91807186520126 -70.53588986291315 75.76557567750905 93.23491253456018 -66.21268562473776 73.17162114730769 77.09762780953349 -61.74910130259952 67.94727059558068 63.974728154530084 -57.39071928199835 60.73592864809991 53.0711389453178 -53.507679923192235 52.31833190572321 43.97137420213835 -50.26154865931149 43.325659844882374 36.34253442649389 -47.623073085690145 34.70484035864602 29.87673746776031 -45.37937948541353 25.974571630582723 24.212871931450263 -43.37604943669136 17.181348446724506 18.869257612668907 -41.549157937253085 9.017432461034833 12.382023610044207 -40.315590832526375 2.159079988259504 -2.2224858454333134 -39.01231971676285 -1.6579202824869625 -35.14168847290344 -33.944275885814946 84.95431308581088 283.1810436193696 -7.802405054408375 43.118946885753914 284.22896347109213 -11.09397016784466 33.43231184643912 284.87431511491144 -21.166257894924474 36.0394661271762 280.64232473301945 -31.4558594174007 42.311675015984214 272.02724224992556 -41.738881433294324 51.28008218345248 260.49785083257655 -53.3699304969802 64.18575963449486 243.05941600764132 -66.83620641080373 78.54835055733076 231.16277647162033 -81.96090239717257 87.03182939651114 214.8571594275034 -99.22187731462236 86.43803009713768 215.14445141717715 -115.7563547885969 73.94839254028099 218.12935703438143 -138.36375871590278 118.5686584841619 313.7452194737591 -129.31061486308275 93.58465800599517 346.83253849811103 -106.01101817630641 95.18566231392919 372.5815225160317 -117.18357788936721 91.2986311748614 233.17060481771597 -128.74342225457352 90.62542598692413 169.77352954043553 -108.71946993287854 89.32792468457966 129.13547982663798 -91.09967516836261 94.06681889867217 108.90251198088808 -82.75278137573173 94.19037183592724 89.7091454189899 -75.9680473856041 92.18517776678337 73.28999393822241 -68.98226231058881 87.06606659351277 59.93191103325306 -62.37875750984087 79.53182367079442 49.03135216681387 -56.36852973589326 70.15257138353502 40.06269786479774 -51.1200602230403 59.65073141994414 32.637676268552795 -46.67639222723407 49.05614219772638 26.425734511012347 -42.838377445508044 37.9387076822634 21.05151577054329 -39.45105204793329 26.235301569979065 16.057886355621406 -36.50019550187628 14.617145870330202 10.38105261850953 -34.698895939178655 4.951805063568756 -1.6501863516763247 -34.62242719319964 -2.083427365730051 -45.41344219126089 -33.721630619195835 99.14882443245077 330.49608144150255 2.1643682898166516 37.96049993423297 341.0361570013049 -10.561485656012756 27.107454541257596 337.32979028917094 -28.181653186337478 31.701783763775012 331.1424538652845 -41.925663429139696 37.60103169408514 322.45916028627727 -56.04877554771087 47.0949667483413 310.61168299572813 -71.31764470653407 59.140056037185296 294.53016746573763 -89.2882935929812 75.67864695570653 285.8632243963086 -107.15982481450534 90.36479288556956 274.6120219994788 -124.13812157843432 91.10855054879418 274.79282686714555 -145.66881409145194 71.88776298689389 299.4756958199628 -156.16808512241232 43.9006596710702 359.43468151590207 -128.85343385303284 34.535990549777075 218.02547800734175 -93.04741029998553 188.15273556080365 214.5240055822582 -132.88900135527152 128.67410313383698 173.81925845391422 -148.36567395841524 117.88661715388238 150.83534809591205 -126.74588510990465 111.54880298919183 124.29773349660363 -105.84751883118292 114.50652462458804 106.32559003996039 -95.51336992074313 115.30581704985207 85.17727933070525 -86.33814239042738 114.35112306113481 68.97170017073583 -76.80630495752739 109.89350805858166 55.602802697012926 -67.89359451177236 102.6298669531233 44.798930083112865 -59.595867106025786 92.66102485464366 36.01715492502529 -52.08996002760879 80.61929937640731 28.782272193754462 -45.55679729051914 67.98945100938406 22.842934423402344 -39.83529460714855 54.23030089221229 17.78379181893322 -34.776126408353846 40.05589008339134 13.410570498634087 -30.39398677355252 24.164674330247067 8.72002059376104 -27.344469866591066 8.577291765444524 0.9726718544125643 -28.552596558963625 -7.5562565127360966 -57.50527556704016 -35.607543037564355 120.94866888397992 403.1622296132664 20.82834646761892 10.140571257275937 401.48442361229826 -15.760213563915539 20.3450428117835 399.15690000758696 -36.89592818139326 19.853126616516747 388.5039001486959 -55.09249471275654 28.49318015269739 380.4724288234587 -72.86752442032116 38.25132210063596 366.8072153859335 -91.38699783520688 51.18752701773935 355.35524221754304 -111.47773241551741 68.19835050600201 343.6981077372127 -132.1241135907164 86.13216948775064 340.67542138659024 -152.4384519843742 94.62438224439875 334.60963868161593 -171.56140321744675 84.76033651544358 323.76954497278365 -172.31827235699325 60.093800393457784 305.6504948452165 -142.10388732212223 86.08377125771887 230.0503326566695 -121.1723583161079 146.04750889262124 168.64898807328544 -129.95005609252627 133.33458251926493 146.2370207131079 -141.79674587321267 139.76261456201232 139.7872384106861 -136.73022894350564 137.57508794339034 119.59352039297664 -121.54992718815188 136.54688515474518 100.39036184019216 -109.06645085629819 138.4746835010127 78.83540013692374 -97.30537433613915 137.6170452169356 62.72702566798759 -85.8705852668265 134.2007295884337 49.07705363234358 -74.89268133460982 128.00766375601805 37.97190596747406 -64.32298791805206 118.69419962853445 28.85235347580233 -54.22437948687341 106.39201507807098 21.52185578404192 -44.840468871879445 92.44020414285453 15.770659852369622 -36.29749203447436 76.28628671567986 11.231883658161388 -28.63785282326192 59.5961303631587 8.014489209517638 -22.1144431480743 39.910586145459845 3.9343194420600334 -17.256276639500584 19.46142298267628 0.8791028552699638 -15.893137605183837 -5.144805776465359 -42.05835649381482 -28.347361208606173 165.42843142248958 551.428104741632 55.98221704353346 -22.43389758214994 463.04164813644184 -23.82146738621909 15.73031764366641 469.35311325306174 -46.853697234739165 9.688346423969477 459.9013549235226 -68.81135373581257 21.33587261991353 448.58220261855575 -90.99160623775552 30.264481971048 431.67152700814506 -112.09919694601398 41.899773122764955 415.6222903066067 -133.5427505351656 62.71616005181153 414.96118208826704 -157.51682997927125 81.77776917393567 409.51456417348004 -182.12231649214888 103.99264591828869 394.56893340494065 -198.63926927937658 123.18399994117252 362.04402938400096 -194.9820814542302 127.99536976788781 279.0248487427077 -168.2879820646878 73.55727764174704 158.31559001766024 -131.85576774179452 94.31165638613669 147.5221447911677 -126.47632749672671 146.2011896273703 146.1805516138358 -133.9675907571366 150.2342479471656 136.69024452939482 -144.54808814657204 168.45641117792212 119.41909633236261 -138.65312419973375 162.07609832703707 92.93918907958107 -122.85313497098211 163.41573413202127 71.6159996278338 -108.34777190399484 164.00921219171053 56.60161215092979 -95.42761400801442 163.03912864929057 43.20700549633705 -82.57757754535704 159.3133827753793 32.13693788132453 -69.8042403018734 152.3691817421537 22.99455849927873 -57.07131391222616 141.05656090813594 15.679040584015901 -44.575140692450475 125.48947640186643 9.917917918188923 -32.8463498252111 106.5929641783587 5.754020081932399 -22.184892551354086 85.62428361926806 3.3887245408472673 -13.287136952989107 67.58514839588052 1.423194623956828 -6.4249977878788505 53.22914811469034 6.176186547312112 -0.5508448908439176 9.97386679638021 -16.990008911757776 -14.36877040548542</DataArray>
<DataArray Name="strex" NumberOfComponents="3" format="ascii" type="Float32">9.7515 0.048499999999999766 0.0 9.754132631643413 0.04683694981903436 -0.02419800907741674 9.762150895528734 0.04179303904175359 -0.04804247199368833 9.775585982213787 0.033415882696207544 -0.07063882613329024 9.794251515084557 0.021940686375386154 -0.09107246783370719 9.817730000862793 0.007799359808127071 -0.1084589262554474 9.84537308643891 -0.008383524775803841 -0.12199890121325224 9.876317701337568 -0.025809745295898523 -0.13103424739100283 9.90951892618333 -0.04354200516947482 -0.13510021317045007 9.94379886456348 -0.06055313566219889 -0.1339688877132338 9.977909063923976 -0.07578731441836939 -0.1276790060075581 10.010602343710968 -0.08822907762438614 -0.11654807670847434 10.040708489406995 -0.09697459408231124 -0.10116421197972536 10.06720739384169 -0.10129889068731801 -0.08235693193778237 10.089293052867092 -0.10071264284593218 -0.06114837451322952 10.106422437835354 -0.09500284785651258 -0.03868848361631416 10.118344639110132 -0.08425314226450498 -0.016179571251169644 10.12510764641997 -0.06884154174465174 0.005203118998422518 10.127042444581093 -0.04941571066767558 0.02438776775996976 10.124726439665567 -0.026848189171171155 0.04047257264373494 10.118930271211559 -0.0021760001128394713 0.052777077504001735 10.110553544662546 0.023469534323597774 0.06087451967575541 10.100555767275063 0.048936276683267055 0.0646035903244786 10.089888743944252 0.07312169439264249 0.06406014692647544 10.079435959856413 0.09503467947266775 0.05957131020572026 10.069963212894642 0.11384458564541516 0.05165580512661827 10.062083184848793 0.12891495024121022 0.040975244117035015 10.056234993673003 0.13982107175651046 0.028281277645306524 10.052678259449742 0.1463521590878106 0.014363217559963615 10.0515 0.1485000000000003 1.800230794746604e-17 9.742759189204321 0.05016170953375276 0.0 9.745483940754863 0.04844085827243342 -0.02504374941425549 9.75378278516616 0.04322164570337561 -0.049721661598909145 9.767688032580141 0.034553356634150434 -0.07310797742877648 9.787006833942796 0.02267939742416275 -0.09425619585642585 9.81130715762586 0.008046726429843942 -0.11225099630611376 9.839918053622851 -0.008698328958433477 -0.12626519462306318 9.87194635717498 -0.026729747718479357 -0.13561767850816436 9.906310701574553 -0.04507759529858757 -0.13982746719498595 9.941792092458549 -0.0626789400966179 -0.1386586731726629 9.97709850379018 -0.07844120451752401 -0.13215134665202455 10.010939209485505 -0.0913135809489507 -0.12063402698005143 10.04210311628381 -0.10036078822217975 -0.10471528885640913 10.069534455588363 -0.10483263822569322 -0.08525353055942331 10.092399011601174 -0.10422280374916237 -0.06330648479394663 10.110134699823158 -0.09831090767516937 -0.04006414947745629 10.122481729544361 -0.08718354690702856 -0.016770722049881837 10.129489624191367 -0.07123195225299295 0.00535760440300681 10.131500766680675 -0.051126395217226506 0.025211657234661455 10.129112554881198 -0.02776985415385158 0.041858197425831634 10.123122363915654 -0.0022355162775837822 0.05459303773288138 10.114461042160606 0.024305851563429126 0.06297451769786333 10.104121442990227 0.05066194755327014 0.0668356747002874 10.093088466626225 0.07569180870935643 0.06627566879335767 10.082276331542309 0.09836978440199207 0.06163297833403636 10.072477486892357 0.11783628174068306 0.05344436041578393 10.064325948758706 0.13343266202700585 0.04239443790809938 10.058276138861858 0.14471943026860792 0.02926100977128332 10.05459674221392 0.1514784587587853 0.014860850471592413 10.053377841097213 0.15370126016471541 1.8626044367322107e-17 9.733550020661962 0.05190916301150583 0.0 9.736371792341362 0.050127465324349016 -0.02593440420584295 9.74496614313191 0.04472371525301161 -0.05149003229753396 9.759366564424322 0.03574895648040366 -0.07570827708360792 9.779373394111227 0.0234552301589388 -0.09760905132214229 9.804539294132354 0.008305338934285755 -0.11624455111507953 9.834169522303855 -0.009031484856566352 -0.1307582314282278 9.867339226678613 -0.027699952404323325 -0.14044479595816844 9.902928663126398 -0.0466957669878072 -0.14480617398637718 9.939675562042794 -0.06491834519843276 -0.1435980768903501 9.976242014435035 -0.08123641324343756 -0.1368619370575721 10.01129143946319 -0.09456195377592413 -0.1249379053459756 10.043569695779645 -0.10392657592242882 -0.10845609875732909 10.071983458913904 -0.10855354672917361 -0.0883053187912779 10.095668800107301 -0.10791864088817427 -0.06558077351863245 10.11404356127861 -0.10179372049773816 -0.04151463169431002 10.126838590636812 -0.09026850282153775 -0.01739519036931858 10.134105015993821 -0.0737481358510359 0.0055182426383550975 10.136197210932293 -0.052926696619555624 0.0260771657723895 10.133733612647639 -0.02873921383923639 0.0433152400435719 10.127539736776253 -0.002296953620612996 0.056503290683764806 10.118579318918513 0.025187784942898306 0.06518396961260331 10.107880315267177 0.05248041045853169 0.06918435897736952 10.096462466132921 0.07839949641978972 0.06860709322008995 10.085272344532395 0.1018830224009678 0.06380260583724828 10.075130457705976 0.1220409180238537 0.05532663635191071 10.06669328306723 0.13819119602804059 0.04388803157892651 10.060431355554526 0.14987878606055044 0.0302921184620889 10.056622905842792 0.15687783649149242 0.015384583203064739 10.055361245151758 0.15917957117477055 1.9282496165710542e-17 9.72383850764292 0.05374826921658293 0.0 9.726762551854911 0.05190246369539228 -0.02687319441293794 9.735668407672225 0.046304285185663555 -0.05335398002621206 9.750590814033002 0.03700663177103858 -0.07844913208447821 9.771322931035563 0.024270644406168107 -0.10114316772620262 9.79740129140785 0.008575822409332634 -0.12045404944997826 9.828106080247899 -0.009384465228167826 -0.1354942888938524 9.862479051791674 -0.028724088444838758 -0.14553310170922973 9.89936001651128 -0.04840254137388755 -0.1500544047933665 9.937441096636167 -0.06727956538859536 -0.1488050534560028 9.975336025562887 -0.08418311140194445 -0.14182793373927405 10.011659893187202 -0.09798595364496743 -0.1294754300053742 10.045113185312886 -0.10768481378487715 -0.11240035809300086 10.074562991234924 -0.11247498971052572 -0.09152355632805587 10.099114059963709 -0.11181339903439325 -0.06797972266910746 10.118163068569732 -0.1054637294990517 -0.04304546435495382 10.131430988948326 -0.09351899047272605 -0.018055550028185152 10.138970628020871 -0.07639899954888252 0.005685278162718799 10.141148983873848 -0.0548229234160833 0.02698707321107152 10.138606654321471 -0.029759568482415455 0.04484861412409957 10.132198799764808 -0.0023603310123823107 0.058514392449770636 10.12292380380519 0.02611872105741675 0.06751052614339903 10.111846606771419 0.05439842988174437 0.0716578189416972 10.1000236577183 0.08125472726196514 0.07106256346551554 10.088435620682077 0.1055872655007426 0.0660877881636055 10.077932567872962 0.12647385668530192 0.05730923273557509 10.069194645326938 0.14320790886901869 0.04546126765383929 10.062709368385391 0.1553179387567198 0.03137822538556545 10.058765028529454 0.16256995592024018 0.015936256011380157 10.057458342353662 0.16495488078683174 1.997397021633631e-17 9.713587531823853 0.055685444856531596 0.0 9.716619485207719 0.053772034696149135 -0.027863633317371076 9.725854015140571 0.04796882295789176 -0.05532048124602622 9.74132717948605 0.03833066466937646 -0.08134080338302238 9.76282456952524 0.025128299374365337 -0.1048717803182975 9.78986570637783 0.008858837276824683 -0.12489526343397347 9.821704328938766 -0.009758894976251264 -0.1404911235196208 9.857346967013653 -0.029806238576005395 -0.15090168925379693 9.895590767365476 -0.05020449771849256 -0.1555918755082486 9.935079741434233 -0.06977156858652767 -0.1542991932729021 9.974376610230124 -0.08729239715164283 -0.1470680586243509 10.012045479631288 -0.10159840586062474 -0.13426375627705256 10.046738968325952 -0.11164952255357896 -0.11656304109888915 10.07728240075894 -0.11661154869744772 -0.09492054014667373 10.10274747664688 -0.11592151666361827 -0.07051260176349672 10.12250853667199 -0.10933449665524808 -0.04466270370556691 10.136276122666702 -0.0969469747281928 -0.018754630198878353 10.144104799667396 -0.07919424543976472 0.005858954408524131 10.146374868975293 -0.05682194274595709 0.027944387517530256 10.1437502906124 -0.03083450369088392 0.04646365470257319 10.137117482162676 -0.002425655010381833 0.06063346983536633 10.127511362895001 0.027102367458013532 0.06996250893892242 10.116035874357182 0.05642339720517131 0.07426495044316983 10.103786177994992 0.08426838804249026 0.07365094196244737 10.09177889089585 0.10949656544949671 0.06849679279224485 10.080895266175832 0.13115186492456166 0.0593993340402974 10.071840413252911 0.14850174259166216 0.04711985348498304 10.065119757992877 0.1610574039086596 0.03252327349981332 10.061032205351918 0.16857627474421574 0.016517872458416294 10.059678066803276 0.1710489565163389 2.0702978125158835e-17 9.702756491524408 0.057727666538959 0.0 9.705902410553817 0.05574289811107305 -0.028909558737076187 9.715484062580543 0.0497232695287875 -0.05739715692663438 9.731538901349404 0.03972570297855088 -0.08439450003827811 9.753844529632396 0.026031072258398014 -0.10880934760075825 9.781902509473294 0.009155080166069696 -0.12958542344375173 9.814938658611565 -0.010156570525167607 -0.14576813433690705 9.851922316440794 -0.03095088029833115 -0.1565714194415092 9.89160558355203 -0.05210883656356069 -0.1614401285590087 9.932581672667478 -0.07240416037701691 -0.1601019037250372 9.973359440935837 -0.09057639880808765 -0.15260277274712664 10.012449158612974 -0.10541332126329328 -0.13932163647272522 10.048452897862404 -0.11583601503142305 -0.12096052028548399 10.080151877705644 -0.12097914555494693 -0.09850972099299704 10.106582892788799 -0.12025875633056371 -0.07318955715133146 10.127096688101444 -0.11342082455968105 -0.0463729885046984 10.141392779479599 -0.10056551163029503 -0.019495546620968085 10.149527573615932 -0.08214445644691404 0.006039510392602754 10.151895402588451 -0.05893123993813454 0.0289523665180198 10.149184877744212 -0.03196791987196246 0.04816616119999084 10.142315404231784 -0.0024929165222478122 0.06286827982192156 10.132360463069324 0.028142789942205315 0.07254898120544695 10.120465162227099 0.05856340163043883 0.07701544565304763 10.10776552648197 0.08745238543163258 0.07638188676812163 10.095316125014246 0.11362628534638797 0.0710386308516271 10.084031126796202 0.13609327131300025 0.06160477182765445 10.074641994857469 0.15409340081457354 0.048870010930879726 10.067673064416546 0.1671196034741217 0.033731561416503575 10.06343444755648 0.1749202437786287 0.017131616884205947 10.062030254429356 0.1774855875072756 2.1472258139156128e-17 9.691300903110886 0.05988252884177836 0.0 9.694567303701046 0.05782236791126309 -0.030015169429238573 9.70451592535003 0.0515740879247923 -0.059592344849963105 9.721185700775306 0.041196796842010774 -0.08762248560340825 9.744345793230305 0.026982078704327117 -0.11297168863553521 9.77347878708513 0.009465284400436924 -0.1345433818715856 9.807780993033873 -0.010579482148260322 -0.15134654748156723 9.846182446057846 -0.03216293269831216 -0.16256511924421407 9.887387638607828 -0.05412345137017671 -0.16762273855527277 9.929936094107902 -0.07518807930615612 -0.16623661404491807 9.972279739240985 -0.09404839111344998 -0.15845447272068092 10.012871941722054 -0.1094460293273567 -0.14466960080253233 10.050261345250513 -0.12026104056403453 -0.12561072545118468 10.08318254565313 -0.1255951918767586 -0.10230583537261873 10.110635435862514 -0.12484235179772352 -0.0760217133325769 10.131945809765332 -0.1177388938301176 -0.04818360868953375 10.146801514988574 -0.10438886876494324 -0.020281737381681708 10.155260888220798 -0.08526119290727419 0.006227176342787466 10.15773307313001 -0.06115898552470567 0.030014541888785384 10.154932717049684 -0.03316406517721737 0.0499624454145029 10.147814071905286 -0.002562086707027067 0.06522727619586055 10.137491357751351 0.029244455010998482 0.07527982697385571 10.125153176018546 0.060827310621921704 0.07991987872210382 10.111978726705456 0.09081976240893375 0.07926593748869859 10.09906267985678 0.11799324865765437 0.07372313764404081 10.087353985328354 0.1413181427370112 0.06393409494224889 10.07761195434933 0.16000554803335276 0.050718532237032043 10.0703809054378 0.1735290812873826 0.035007782058559145 10.065982796282583 0.1816275321051102 0.017779874065070034 10.06452575518189 0.1842908128654468 2.2284799795036545e-17 9.679171948327921 0.062158309265312184 0.0 9.682565849983972 0.06001841454493263 -0.031185066310049313 9.692902822830181 0.053528317460134936 -0.06191518148219865 9.710223368410896 0.042749439569582104 -0.09103819859515921 9.734287725189555 0.027984695306886798 -0.11737613853474918 9.764558403393028 0.009790219942986567 -0.13978979858740992 9.800200499301598 -0.011029839772686012 -0.15724962524406655 9.84010246738243 -0.0334478098952431 -0.16890780690840768 9.882918433376878 -0.05625700996641747 -0.17416554527324046 9.927131118862304 -0.0781351050122796 -0.17272900746711262 9.971132217798555 -0.09772292701160468 -0.1646477134407156 10.013314892563395 -0.11371332888970942 -0.15033016251660314 10.052171254552306 -0.12494294856528931 -0.13053332410189022 10.086386564445025 -0.1304787579816198 -0.10632505544139748 10.114921662404395 -0.12969117439548006 -0.07902128818454335 10.137075930391026 -0.12230641839993828 -0.050102583690808 10.15252485474992 -0.10843266121332107 -0.02111700404635064 10.161328795571784 -0.08855710155879937 0.006422168089161406 10.163912547052867 -0.063514110726552 0.031134745637413808 10.16101828161813 -0.03442757240507932 0.05185938516854982 10.153637098087266 -0.0026331119372906553 0.06771968430530828 10.142926298261187 0.030412278328351805 0.07816584019205886 10.130120481151648 0.06322486136116323 0.08298980215185603 10.116444510008233 0.09438483046285895 0.08231461201041812 10.103035468389006 0.12261590827497915 0.07656106333509127 10.090879094444892 0.14684848505866505 0.06639664858986327 10.080764156440178 0.16626303557934272 0.05267284300012576 10.073256112394706 0.18031274731497576 0.036357066223468903 10.068689453190615 0.18872628228048138 0.018465251367830116 10.067176561938071 0.19149318046869546 2.3143871698303155e-17 9.66631595904 0.06456404095999879 0.0 9.669844934161446 0.062339734654422635 -0.032424299226580036 9.680593324032492 0.05559363432555281 -0.06437569487548177 9.698603296347004 0.04438961307588293 -0.09465638919777591 9.723625641966798 0.029042584317698406 -0.12204172491466496 9.755101615118942 0.01013069259984567 -0.14534735142091906 9.792163257068793 -0.011510102894917718 -0.16350290334562978 9.833654987859086 -0.0348114822094161 -0.17562694754179703 9.878177592282979 -0.05851904736673763 -0.1810969181796771 9.9241536340057 -0.0812581811961357 -0.17960728486925692 9.969911013454912 -0.10161598732017074 -0.1712094610737276 10.013779126050869 -0.11823365920476459 -0.15632805104243053 10.05419020352613 -0.1299018739772384 -0.13574992661816943 10.089777246321013 -0.1356507644764906 -0.11058515961451265 10.119459721228278 -0.13482592150380368 -0.0822017243189479 10.142509021641567 -0.1271428213660406 -0.052138751980166376 10.158587523554228 -0.11271400539875165 -0.022005559076538006 10.167757709202792 -0.09204603875168393 0.006624679902527575 10.170460925781713 -0.06600639262781582 0.03231713932132285 10.1674684742528 -0.03576350038754028 0.053864484339365415 10.159810454791351 -0.002705907600917268 0.07035558505171569 10.148689774908615 0.031651680175141195 0.0812188250132162 10.13538972938458 0.0657667649657494 0.08623785539308226 10.121183525807977 0.09816332001814376 0.08554051557734255 10.10725315354076 0.12751453874045093 0.07956417526440696 10.09462330254005 0.15270847117544872 0.06900266357600571 10.08411393221267 0.17289315836443836 0.05474107323670285 10.076312886495423 0.18750015514652968 0.037785031760299126 10.071567930937642 0.19624740024648787 0.019190603760695035 10.06999595904 0.19912404095999925 2.4053052884999827e-17 9.652673829330794 0.06710959424271579 0.0 9.656346058382988 0.06479582918038923 -0.03373842014363939 9.667530783441194 0.05777841934727365 -0.06698491031384005 9.686271943936314 0.04612383846985854 -0.09849327472595071 9.71231031911987 0.030159720743205498 -0.1269893685749617 9.745064631582888 0.010487542218435175 -0.15124097555988428 9.783631880610498 -0.012023015373224033 -0.17013446084074912 9.826809802551601 -0.036260546356608137 -0.18275274388533636 9.873142630032506 -0.06092007181067616 -0.18844805742805193 9.920989145139368 -0.08457155579163178 -0.1869024648376706 9.968609609809745 -0.10574515111051208 -0.1781693810936289 10.014265806407794 -0.12302729448973526 -0.16269047754198884 10.056326471950124 -0.135159948054985 -0.14128432010556513 10.0933691871978 -0.14113419985448195 -0.11510572722013324 10.12426953849576 -0.1402693305360816 -0.08557783919828044 10.148269226556245 -0.13226943451592055 -0.05430187373290929 10.165016706182822 -0.11725169352614095 -0.022952080663094954 10.174576686107415 -0.09574321000255459 0.006834875378739724 10.177408038530707 -0.06864655044876589 0.033566246262199506 10.174312921760897 -0.037177380460128306 0.0559859400957512 10.166362761117764 -0.0027803504654990707 0.07314600938416982 10.154808792699763 0.03296864907840913 0.08445170885822462 10.140985918259112 0.06846482554589572 0.08967788742061789 10.126218582754587 0.1021725520081389 0.08895746399746818 10.111736370880905 0.13271145531777306 0.08274537356434886 10.098605259325257 0.15892470081166632 0.07176335718527027 10.087678270327054 0.17992594726677041 0.05693213774024408 10.079566979258491 0.19512381795303874 0.039297839181829386 10.07463322703792 0.20422488539869854 0.019959062099194513 10.07299869397053 0.20721788245595985 2.5016268291002014e-17 9.638180343062789 0.0698057680483215 0.0 9.642004676439687 0.06739709093864299 -0.03513354376048396 9.653652695651981 0.06009183381638292 -0.06975497072001738 9.673170226620984 0.04795923238822769 -0.10256671681649995 9.700287427696002 0.03134042200506104 -0.13224211224070698 9.734399111025533 0.010861639537389056 -0.15749813644915817 9.77456508588656 -0.012571646027752736 -0.1771752278246186 9.81953354065658 -0.037802306227684435 -0.1903184678639792 9.867788683734632 -0.0634716862126663 -0.19625333713615856 9.91762159738747 -0.08809094112709293 -0.1946487259745544 9.96722074728617 -0.1101297901087177 -0.18556016698357003 10.01477614342346 -0.128116565682463 -0.16944743810874963 10.05858911826564 -0.14074153845998527 -0.14716273557750092 10.0971784153375 -0.14695436819717544 -0.11990836113411696 10.129373027991655 -0.1460464223878417 -0.08916599713197781 10.154383119585937 -0.13770972518974833 -0.056602748852304874 10.171842344627013 -0.12206639176733791 -0.023961776334472162 10.181817748557158 -0.09966532836281283 0.00705287586000658 10.184786776811965 -0.07144635455296067 0.03488698702247861 10.181584311519991 -0.03867526869744364 0.058232718270070816 10.173325612996903 -0.002856269257281774 0.07610304474892482 10.161313187451682 0.034369815026350725 0.08787867007185568 10.146936689013236 0.07133207655786777 0.09332509530678035 10.131574926098349 0.10643163404284328 0.09258062304132109 10.11650798518115 0.13823126425592758 0.08611882204321963 10.102845653144406 0.16552649715453038 0.07469104742011323 10.091476038107166 0.18739450288362167 0.05925582710179422 10.083035901449433 0.20321956908220046 0.04090225466621655 10.077902025372191 0.21269620724947771 0.02077406517336927 10.076201176396122 0.21581271249276668 2.6037828938838728e-17 9.622763402771614 0.07266439261091051 0.0 9.626749430307811 0.0701549028925846 -0.03661641675414185 9.63888995522282 0.06254390439470525 -0.07269927420140226 9.659232814869682 0.049903569719373736 -0.10689642385113504 9.687496887545661 0.0325893803181892 -0.1378253818933733 9.723051582452538 0.011253881240072872 -0.1641491415987305 9.76491719328352 -0.013159436183159845 -0.18465933705627607 9.811789259116653 -0.03944486612245757 -0.19836083951827194 9.862088204449057 -0.0661867276312138 -0.20455069780505242 9.914033168648023 -0.09183369738323788 -0.20288379831912962 9.965736318347108 -0.11479129103300512 -0.1934179162432481 10.01531138637622 -0.1335261138025432 -0.17663206078186167 10.060988065622801 -0.14667352335379613 -0.15341415397995561 10.101222560003784 -0.15313917176869696 -0.1250169430690291 10.134794330527981 -0.1521847790063946 -0.09298430686825432 10.160880003245602 -0.1434895547671884 -0.05905335304473169 10.179097477651153 -0.127180865886241 -0.025040456988747906 10.189516252219294 -0.10383079448829902 0.007278745745864956 10.192633477515702 -0.07441875008938359 0.03628471840849379 10.189318777375952 -0.04026380469005586 0.060614637911015734 10.180733961750844 -0.0029334330156307598 0.0792399551575853 10.168235989222293 0.03586253395986527 0.09151528227035088 10.153272669625359 0.07438293738044544 0.0971961811335782 10.137280557632979 0.11096168526666017 0.09642666642670683 10.121593386913622 0.1441011493937695 0.08970009660494194 10.107367485749883 0.17254624638626204 0.07779928259656566 10.095528237986096 0.19533537742484644 0.06172291099342453 10.086739165796532 0.21182697458594285 0.0426057215585971 10.081392930507215 0.22170273629238615 0.021639396082022144 10.079621709697825 0.22495049491964725 2.7122477551938683e-17 9.606343143070529 0.07569844483117194 0.0 9.610501272318945 0.07308174849375662 -0.03819449706434089 9.623166005553419 0.06514561821553798 -0.07583263154707474 9.644387327850673 0.05196535341455655 -0.11150418275196661 9.673872123317079 0.0339116979075183 -0.14376728604406583 9.710962780179912 0.01166518262584293 -0.17122749769843124 9.754637554898862 -0.013790255544091412 -0.19262452672767216 9.803535974095993 -0.041197238687593396 -0.20692046113085227 9.856010600977191 -0.06907942787198817 -0.21338209600195368 9.91020403005671 -0.09581904327792401 -0.2116494120247986 9.964147244977555 -0.11975331050834304 -0.2017825615748048 10.015872814851653 -0.13928318010909324 -0.18428100370887468 10.063534198545309 -0.15298560503291325 -0.1600706576055546 10.105521043131603 -0.1597194341470516 -0.13045792708315918 10.140560087082301 -0.15871486056472817 -0.09705284922143953 10.167792247305941 -0.149637473823514 -0.061666995177325656 10.186818629654777 -0.1326202386393276 -0.02619462335522904 10.197711308276716 -0.10825990178911216 0.007512473867791414 10.200988362737816 -0.07757799748037497 0.03776527625009907 10.197556343273739 -0.04195027774294835 0.0631424661892166 10.188626549888532 -0.0030115366673173494 0.08257131677723084 10.175613841319386 0.03745498557541005 0.09537867779961173 10.160027870983392 0.07763339360820654 0.10130952995325915 10.143366605866708 0.11578609477852275 0.1005139551677865 10.127020835971283 0.1503512012229672 0.09350635384621953 10.112196391480184 0.18001978729521978 0.0811029886212642 10.099858305952829 0.2037890127819426 0.06434525557678583 10.090698569899985 0.2209898063310593 0.04441644166618752 10.085126741099893 0.23129023808740554 0.022559223593304645 10.083280761217978 0.23467765088032166 2.827544042353939e-17 9.588830908459077 0.0789221779606768 0.0 9.593172453038742 0.07619133562282776 -0.03987604489759377 9.606395857448742 0.06790902941304325 -0.07917144700997232 9.628553403458504 0.0541538921253118 -0.11641412506065626 9.659339206089207 0.03531292512622286 -0.15009895929742667 9.69806687573057 0.01209646713213619 -0.1787703206278227 9.743669893020348 -0.014468468114326671 -0.20111260295722327 9.79472811922746 -0.04306947027724628 -0.21604231582255284 9.84952182724832 -0.07216559895666186 -0.2227940209525069 9.906112067564662 -0.10006829866396405 -0.22099181296670323 9.962443334907615 -0.1250420680745994 -0.21069836660957075 10.016461725444177 -0.14541793921442192 -0.19243491318474137 10.06623947157662 -0.1597106696644084 -0.16716783470373398 10.110095297534963 -0.16672927056641562 -0.13626067796011898 10.146699751088073 -0.165670368712179 -0.10139394005856905 10.175155677524234 -0.156185059900126 -0.06445849981688312 10.195046257082144 -0.13841228405068895 -0.02743156733747698 10.206446268708303 -0.1129750706205157 0.007753949869605314 10.209896046099544 -0.08093983232930224 0.03933502217102758 10.206341434658093 -0.04374270149110693 0.06582802496220985 10.197046414213617 -0.003090183114313305 0.08611317121665207 10.183487484810833 0.0391562868975075 0.09948773309267622 10.16724014580214 0.08110120524764763 0.10568541193524972 10.149867755661319 0.12093081943266049 0.10486274151489194 10.132821861436513 0.15701479570078314 0.09755652290373318 10.117361009266062 0.1879868595185054 0.084618636657106 10.104492460082783 0.21280024433340336 0.06713595720747922 10.094938527156064 0.23075658598215004 0.04634346785542598 10.08912677004639 0.2415094412920422 0.023538149260698638 10.087201278829447 0.24504563475079877 2.9502486505321963e-17 9.570128071426133 0.08235126741684251 0.0 9.574665350968473 0.07949873582888062 -0.04167022744473711 9.588484954163476 0.07084737842697525 -0.08273392633792231 9.61164162263728 0.05647938643153633 -0.1216530331403536 9.643815860182874 0.036799101444833504 -0.1568549577558087 9.684290588638044 0.012548651701304259 -0.18681880738768475 9.731951533743239 -0.015199010274906222 -0.21016997221484318 9.78531491726493 -0.045072787035501216 -0.22577634165763827 9.842583902847693 -0.07546284794551728 -0.23283808952908558 9.901732557220727 -0.10460516464639258 -0.23096235680856092 9.960613112241592 -0.1306866838651195 -0.2202144973425053 10.017079413013715 -0.15196388247897197 -0.20113895198940068 10.06911703142137 -0.1668852009088555 -0.17474524662475033 10.114969015760854 -0.17420651337897963 -0.1424578624332189 10.153245946261832 -0.1730886635597746 -0.10603243505243487 10.183010022208745 -0.16316730491080378 -0.06744441967266201 10.203825262188042 -0.1445877645699163 -0.028759491248408153 10.215769285652598 -0.11800111616511266 0.008002934233682701 10.219406117211602 -0.0845216477463433 0.04100089449830069 10.215723469676883 -0.04564989805335684 0.06868431044379353 10.206041468359224 -0.003168860933559614 0.08988319898632202 10.191902320494428 0.04097662460339491 0.10386327913851057 10.174951721920785 0.08480614784978369 0.11034621233336805 10.156822748540739 0.12642472799092663 0.10949540123306667 10.139031728129021 0.16412903153163083 0.10187152412772615 10.12289341774131 0.19649162063097741 0.08836443433295327 10.109460109034057 0.22241888189712902 0.07010949496748076 10.099486455277798 0.24118121213174845 0.04839680971191196 10.093419220772441 0.2524166924302031 0.024581261192303083 10.09140906316167 0.2561115979953543 3.080999484264079e-17 9.550124661833198 0.08600297472710405 0.0 9.554871115322804 0.08302054072893969 -0.04358723968936979 9.569327854996496 0.07397522553087624 -0.08654031677913412 9.593552261438665 0.05895302442246236 -0.12725069346271023 9.627210310496023 0.03837679913688502 -0.16407371526708575 9.669552153913292 0.0130226266691722 -0.19541878072022506 9.719412516334891 -0.015987483649819945 -0.2198482558579109 9.77523964896867 -0.047219765721411955 -0.2361780944367391 9.835154354000702 -0.07899082653146983 -0.24357173335512528 9.897037785117037 -0.10945604794888619 -0.24161819530922157 9.958643617137243 -0.13671956882093417 -0.23038568263485493 10.01772714474839 -0.15895826042429118 -0.21044341050993642 10.072181354248812 -0.17454975669757733 -0.18284696870442874 10.120168434379336 -0.18219320203141187 -0.14908590284983347 10.160234877505639 -0.1810112434811999 -0.11099608394185845 10.191399426468982 -0.17062306049341824 -0.07064328368809658 10.21320558585745 -0.1511808182053742 -0.030187648652401755 10.225733957921959 -0.12336555547319339 0.008259020197609601 10.229573818262242 -0.08834270258634147 0.042770463347811205 10.22575754466278 -0.04768159297908836 0.07172562755864975 10.21566517936481 -0.003246916532961608 0.09390091594532013 10.200909062796853 0.04292740973391407 0.1085283407558002 10.183209824097784 0.08877029265496006 0.11531669347849816 10.164274967307286 0.1323000000076444 0.11443669857250338 10.145689983039595 0.17173523637794164 0.10647451874549319 10.128829646046661 0.20558324432043135 0.09236054417641726 10.114794332646973 0.23270038149189898 0.07328190498100029 10.104373234205436 0.2523236852671896 0.05058755431944961 10.098033631245185 0.26407471270306804 0.025694195522408092 10.095933206992743 0.2679391564469533 3.220503167295516e-17 9.52869777253305 0.08989633177533918 0.0 9.533668087159402 0.0867750375796423 -0.04563844414937632 9.548806703688104 0.07730860010731011 -0.09061318471192019 9.57417383870804 0.06158708734480792 -0.13324030530495082 9.609419940543003 0.04005316927062763 -0.17179807128374874 9.653760119243568 0.013519228430454389 -0.2046213192985647 9.705974554837805 -0.01684026604262745 -0.23020500135347904 9.764438799575931 -0.049524534199416825 -0.24730951495590275 9.82718555955098 -0.08277152197126836 -0.25505899446226565 9.891996600914338 -0.11465043763547866 -0.25302307139143576 9.956520167883365 -0.14317687687607905 -0.24127297982103202 10.018406124724661 -0.16644259461397093 -0.22040441565484814 10.075448399968538 -0.18274952022237567 -0.19152221838614159 10.12572265929456 -0.19073614874393252 -0.15618550486405214 10.167706803800375 -0.18948429852192428 -0.11631594368836717 10.2003730458827 -0.17859555116114834 -0.07407588780130725 10.223242893468619 -0.15822940401924646 -0.03172651142145222 10.236400080349295 -0.1290989600954564 0.008521585285740763 10.240460829558625 -0.0924243596693155 0.04465198974624984 10.236505231372435 -0.049848522379720483 0.07496774068503198 10.225977355996047 -0.0033235192749065945 0.09818789591306354 10.210564503181413 0.04502145923887779 0.11350840890889025 10.192067401511158 0.09301833311232621 0.12062429365670502 10.172273121645038 0.13859258955978515 0.11971408898345759 10.152841097732534 0.17987955459344607 0.11139119436019795 10.135210275822553 0.21531661436381194 0.0966293335588917 10.120532449628765 0.2437066243183847 0.07667097996329453 10.109633747994978 0.2642509482096027 0.05292800456001745 10.103003400050833 0.2765534752101209 0.026883206811104343 10.100806616070464 0.2805992796211463 3.369543872611839e-17 9.505709698732485 0.09405234766846782 0.0 9.510919956754323 0.0907824061485166 -0.047836532958892265 9.526789440688388 0.0808651672206638 -0.09497773767244595 9.553381420439077 0.06439506591263408 -0.13965895483970142 9.590329724987134 0.041835989296772624 -0.18007588324783733 9.636811939186767 0.014039202572290077 -0.21448348893890742 9.691549823291467 -0.01776464456767579 -0.2413045076804315 9.752841058884854 -0.052003007650959665 -0.2592398196793865 9.818623983001245 -0.08682959734353779 -0.2673714492519562 9.88657389129416 -0.12022134398665707 -0.2652482428450256 9.954226077070562 -0.1500990304692238 -0.2529446647291944 10.019117445907106 -0.17446327153752916 -0.23108475565976794 10.078935785406568 -0.19153493836776336 -0.20082608689201953 10.131664038583738 -0.19988759324684935 -0.1638022732064477 10.175706583650197 -0.19855935027055116 -0.1220268619655811 10.20998573358073 -0.18713296696037407 -0.07776563699205452 10.233999370578406 -0.1657758159152931 -0.033387968749310826 10.247834514848362 -0.13523536188716578 0.008789729492195697 10.25213618435274 -0.09679035872231756 0.046654488376741465 10.248035507168552 -0.05216255376989265 0.07842804257815272 10.237045070332906 -0.0033976176404069136 0.10276802300930266 10.22093240451468 0.047273209827608964 0.11883175090802167 10.201583982034013 0.0975779667320944 0.12629946847665918 10.18087205520578 0.14534276607042906 0.12535806543134242 10.160535226548182 0.1886136316927628 0.11665009191851494 10.142081153561275 0.22575313215482012 0.1011956611498912 10.126716690911508 0.2555068227367803 0.0802964980266847 10.115307528824811 0.277037863266139 0.05543183773909899 10.108366412400061 0.2899312246970979 0.028155248803798827 10.106066629131055 0.2941713244679933 3.528993452420588e-17 9.481005759375002 0.09849424062499956 0.0 9.486473605963358 0.09506493906143829 -0.050195716387148516 9.5031277094526 0.08466441298184492 -0.09966219892495329 9.531034633330249 0.06739178764301498 -0.1465481666221852 9.569810392515043 0.04373371105448698 -0.18896073903579774 9.618592326401071 0.01458315440953939 -0.22506919342944334 9.676039529581356 -0.018768976184671105 -0.25321878596997305 9.740366145572109 -0.054673167994500504 -0.2720465376480024 9.80940926732933 -0.09119279089769972 -0.28058928456970744 9.880729956434182 -0.12620581141923815 -0.27837355864141833 9.951742311427118 -0.15753133309158218 -0.26547726944362404 10.019862025523823 -0.18307223357678648 -0.24255484268824645 10.082662978375176 -0.2009624634550291 -0.21082039423049626 10.138028590434775 -0.20970596255270646 -0.1719874326300488 10.184284305602276 -0.20829399353278566 -0.12816804497137424 10.22029883749804 -0.19628914956753052 -0.08173894924599256 10.245544648611673 -0.17386727649374079 -0.035185565324719725 10.260112205994957 -0.14181272091510122 0.00906219623730431 10.26467733760327 -0.10146712955030512 0.04878779312401482 10.260425843923816 -0.05463682225934785 0.08212574329618327 10.248943738911766 -0.003467883926710158 0.10766777767651092 10.232084552681883 0.04969897088648367 0.1245297639971108 10.211826679205695 0.1024803432166943 0.13237608116563493 10.19013369948633 0.15259574711698598 0.13140255508202303 10.168829105185157 0.1979954140042347 0.12228298068489307 10.149494237160747 0.2369616592697208 0.10608720569414287 10.133395001870353 0.2681785771563815 0.0841804854330086 10.12143952580093 0.2907683517646217 0.058114287807480514 10.114165788426162 0.3042956665490381 0.02951806722170336 10.111755759375 0.30874424062499894 3.6998230779207647e-17 9.45441173732116 0.1032476972613523 0.0 9.460156572908492 0.09964728773560835 -0.05273194273283029 9.477654395814836 0.08872785000706708 -0.10469824439434405 9.506975329470146 0.07059355518286003 -0.15395454695157682 9.547716264990257 0.045755507337978674 -0.1985127882013856 9.598971310919504 0.015151482832616026 -0.23645016741369224 9.659332234940774 -0.019862882255241576 -0.266028680808506 9.72692341956958 -0.05755539581929914 -0.2858167211939876 9.799473163790669 -0.09589238647928755 -0.29480255467877936 9.874419768466726 -0.13264551993029694 -0.2924887168821362 9.949047082149601 -0.1655246854784289 -0.27895679608630886 10.02064051839336 -0.19232778524723493 -0.2548938398288718 10.086651514601442 -0.2110954173810411 -0.2215746916334771 10.144856494969206 -0.22025675492232288 -0.18079867492961887 10.19349601870892 -0.2187527581492983 -0.13478372675478179 10.23138112786949 -0.2061243884291093 -0.08602573461786012 10.257956884898883 -0.18255662494576486 -0.03713478774469392 10.27331736877084 -0.14887346599124296 0.009337270996325309 10.278171418674171 -0.10648415182029902 0.05106262398221162 10.273763487142844 -0.05728588381401534 0.0860820808753271 10.261758395662081 -0.0035326441985119583 0.1129165607060334 10.244101997823597 0.052317224865023215 0.13063737853403534 10.22287138394416 0.10776059230555979 0.1388918491546809 10.200128205912478 0.1604024414019919 0.13788537415451607 10.177787120291326 0.20809008595655543 0.1283252887869466 10.157508606497903 0.2490196211738605 0.1113348438577646 10.140622002490636 0.2818091128563567 0.08834751874468538 10.128081027081983 0.3055367270961151 0.06099235498740341 10.12045078194234 0.3197453574135579 0.0309803065298635 10.117922585447392 0.3244179799700966 3.883116633337892e-17 9.425730860720835 0.10834116143982975 0.0 9.431774062064749 0.10455673574666262 -0.05546315556419137 9.450180725591947 0.09307924386450263 -0.11012151383366597 9.481024830792453 0.07401829493969309 -0.16193053661296927 9.523882706394122 0.04791131418153277 -0.20879971468315425 9.577801947135782 0.015744291989547854 -0.24870713848136106 9.641301866079704 -0.02105748558476439 -0.2798251829871558 9.71241023773947 -0.06067286646233705 -0.3006483638705641 9.788738258933451 -0.10096376981253008 -0.3101126540475996 9.867592085584375 -0.13958749277003069 -0.3076947396244125 9.946115348991395 -0.17413642562792098 -0.2934801410109096 10.02145320093189 -0.20229553672464773 -0.26819098491168214 10.090925239292853 -0.22200500115418986 -0.2331674408736879 10.152192660108268 -0.23161357104226443 -0.19030115768127853 10.203404580588717 -0.23000811292169399 -0.14192396128429552 10.243309879088182 -0.21670634675520573 -0.09065996582636071 10.271324026509264 -0.19190311557526618 -0.039253410689657375 10.287544882084859 -0.15646512022352121 0.009612650853531246 10.292716704621029 -0.11187436882826995 0.05349065298455713 10.288146963946186 -0.06012588730965729 0.09032055525197302 10.275585196362861 -0.0035897891772020962 0.11854705988490144 10.257076525252069 0.05514898562700998 0.1371935176790724 10.234804180823772 0.11345844789909809 0.145888855302843 10.210935295337297 0.1688203241677647 0.14484874987031482 10.18748258844779 0.21897117242688302 0.134816598044186 10.166191675530639 0.262014303893704 0.11697308494170744 10.148460142194232 0.2964967320736186 0.09282507269144391 10.135290771407272 0.3214492591362773 0.06408504722150754 10.127277865347633 0.33639133684095734 0.032551632943199627 10.124622827479838 0.3413051503594975 4.0800861481992194e-17 9.394740229894872 0.11380615432718955 0.0 9.401105404893464 0.1098235009061547 -0.05840959554128144 9.420492828090822 0.09774486065652127 -0.11597221061873461 9.45298066521979 0.07768571429608129 -0.17053529422672076 9.498123099398605 0.05021186459792476 -0.21989787846943482 9.554917593846364 0.016361273426810374 -0.261931191417221 9.621805354191734 -0.0223657008427961 -0.29471097107853556 9.696709997179841 -0.06405202484662142 -0.3166520661962871 9.7771164551297 -0.10644708895686494 -0.3266340484265503 9.860188388632773 -0.14708493207768636 -0.3241057075186816 9.942918216701344 -0.18343131725878958 -0.3091567713832113 10.022299816044926 -0.21304951135883554 -0.2825471508070536 10.09551057467403 -0.23377147761615502 -0.24568740660441635 10.160087373155992 -0.2438593201163206 -0.20056868631782088 10.2140806440531 -0.24214163798210864 -0.1496455635957985 10.256172134946617 -0.2281111410176031 -0.09568036098257116 10.285745293596488 -0.20197334663615552 -0.04156191757380112 10.302901929087218 -0.1646410261450928 0.009885276006090127 10.308424359015792 -0.1176746637018824 0.0560845654872808 10.303687867537516 -0.06317476698006508 0.09486718640446457 10.290533203800145 -0.003636660355230248 0.12459566402426736 10.271112405870449 0.05821822795671783 0.14424162116858463 10.247723038680014 0.11961898898676959 0.15341413312704777 10.222645874168327 0.17791447248273484 0.15233991963900362 10.197999292936606 0.23072183979022387 0.14180121304521132 10.175620653403811 0.2760443825996605 0.12304057142294234 10.156981095945984 0.312352524538147 0.09764392103265007 10.143136294969807 0.33862601628284933 0.06741365854572012 10.134712046194036 0.3543590480063458 0.034242876282908785 10.131920653561782 0.35953296221615894 4.292089596130861e-17 9.361186571216278 0.11967762631458623 0.0 9.367899853523237 0.11548106626046481 -0.06159415561296432 9.388347651104278 0.1027537346172593 -0.12229580766015899 9.422612685264912 0.08161746408479797 -0.17983573600803762 9.470225247575536 0.05266870744857638 -0.23189365965384207 9.530128674517426 0.017001548705546043 -0.2762253746995479 9.600679818896518 -0.023802592480859364 -0.310802227355268 9.679689796553973 -0.06772315756926828 -0.3339529986951791 9.764507148456351 -0.11238804175063222 -0.34449631604336606 9.852141598178036 -0.15519820927069916 -0.3418508067289301 9.939422196243253 -0.19348271681666906 -0.32611070554872423 10.023179365636684 -0.2246734496526881 -0.2980766909068633 10.1004368139751 -0.24648556098727026 -0.259235306256828 10.168597051397297 -0.2570876342589439 -0.21168511868987094 10.225603807170362 -0.2552453972080282 -0.15801323287027103 10.270066192226864 -0.2404246021891958 -0.1011312044351218 10.301332925689765 -0.2128423428281203 -0.0440840145876229 10.319509934493354 -0.17346118748118666 0.010151111203502428 10.32542049166069 -0.12392640764468599 0.0588581111979356 10.320512977103377 -0.06645245652996157 0.09975079672472331 10.30672651481703 -0.003669903724369483 0.1311029289944763 10.286328488397773 0.06155240489650837 0.15183024126238243 10.261739838076917 0.12629352293837948 0.16152033637126895 10.23536397927303 0.18775879431131004 0.1604118188516268 10.209433339682969 0.2434364370940587 0.14932881575565826 10.185884315039369 0.2912217299365197 0.12958065552834164 10.166267461240345 0.3295023894099425 0.1028385987374496 10.151695572521971 0.35720304175648926 0.07100209023117998 10.142828473847686 0.37379060636861355 0.036066193680316105 10.139890274919981 0.37924552754915375 4.5206514369557585e-17 9.324781170512285 0.12599433969179508 0.0 9.331871561237273 0.12156653838695272 -0.06504280029643625 9.353468084929158 0.10813795253624195 -0.12914388073609132 9.389658432968961 0.08583730054714073 -0.18990776337453774 9.439947075984573 0.055294202147059046 -0.24488504563402047 9.50321880174969 0.01766345890090182 -0.29170659814775235 9.577739194445689 -0.025385818580631936 -0.32823078361028907 9.661197627916245 -0.07172108577406111 -0.3526932226994235 9.750795032921248 -0.11883881880646308 -0.3638465623411744 9.843374518469387 -0.16399604334782714 -0.36107675245926685 9.93558829503496 -0.20437395598446728 -0.3444828603433312 10.024089832664568 -0.2372623493051722 -0.3149096298051639 10.105736440854974 -0.26025005402050017 -0.27392577259993756 10.17778510666054 -0.27140453146763566 -0.2237460408222236 10.238063956208656 -0.26942354860768747 -0.16710089863596345 10.285103344807206 -0.2537437524081718 -0.10706333870916973 10.318214243871184 -0.2245948190640883 -0.04684726262890493 10.337506860603266 -0.18299324743773804 0.010404860935359306 10.343848607625477 -0.13067609098487099 0.061826136496780926 10.338766786459225 -0.06998112550971425 0.10500331598749035 10.32430680578705 -0.0036852809086074245 0.13811409977040912 10.30286071174907 0.06518307413614455 0.1600137191443145 10.276982814702972 0.13354064315484626 0.1702665040285778 10.249209130648103 0.19843749348684003 0.1691238697974562 10.221895410773802 0.25722232857560645 0.15745521823650277 10.197085158787127 0.3076735630812432 0.1366420633102261 10.176414832694807 0.34808943378909074 0.10844793488255267 10.161059028731056 0.3773349338035426 0.07487722131735108 10.151714411800935 0.3948474885748409 0.03803525852932421 10.148617905206164 0.40060658458975507 4.767486329889606e-17 9.28519380155889 0.13279927802588531 0.0 9.292693566857235 0.1281210283327947 -0.06878506210390772 9.315537117129583 0.11393294852362977 -0.136575095243586 9.353817580690325 0.09037123726574842 -0.20083771678108117 9.407011470539253 0.058101475577743145 -0.25898351123098257 9.473940120144022 0.01834428236200869 -0.3085078814909056 9.552770168823884 -0.0271361848838354 -0.3471466648570782 9.641058988318525 -0.07608600897235207 -0.37303444298833405 9.735847440695819 -0.12585923802228094 -0.38485228607950617 9.833797939490175 -0.17355690832762338 -0.38195066817179535 9.931370889466262 -0.2161999851956291 -0.3644338432008758 10.025027807965738 -0.2509242896999426 -0.3331942734163831 10.111445470743005 -0.2751817822722189 -0.2898896974345375 10.18772294031565 -0.28693037577299574 -0.23686077476354583 10.251562836175387 -0.2847942381553299 -0.17699334204806627 10.301409939145302 -0.2681785371653582 -0.1135353696714736 10.336534093501669 -0.23732665804432207 -0.04988385908388482 10.357049938036825 -0.1933136265076123 0.0106395964058974 10.363872530567047 -0.13797604883283965 0.06500458543820864 10.358614533060312 -0.07378543733094522 0.11066010458850206 10.343436392746348 -0.0036774239088999128 0.1456796910577367 10.320865136685512 0.06914666064094988 0.16885294964684805 10.293599519299267 0.14142750135456206 0.17971893228609703 10.264319192913812 0.21004682314614087 0.17854288508136973 10.235513516384975 0.2722020811089926 0.16624322717319062 10.209342051363759 0.32554500251924506 0.14427965885498995 10.18753435375621 0.36827682828771097 0.11451566669225555 10.171332018649764 0.39919791569702423 0.07906933591144372 10.161471674072189 0.417713730737779 0.040165478483914496 10.158204182181727 0.4238027382334977 5.034526495689889e-17 9.242045417865102 0.14014007341129808 0.0 9.249990553088638 0.13519004566221232 -0.07285463107961584 9.274190793810169 0.12017779746174483 -0.14465637814191074 9.314745233097264 0.09524767191396122 -0.2127241027068554 9.37110005490873 0.061104321318314 -0.27431625262778353 9.442007683336188 0.019039855044874154 -0.32678102704568057 9.525527271780165 -0.02907834116979313 -0.3677211142405975 9.619072770272403 -0.08086453875341792 -0.3951612831986382 9.719511102643757 -0.13351811615100195 -0.40770479251050495 9.82330830808347 -0.18397072128465486 -0.40466351799431 9.926716318112385 -0.22906933433198828 -0.38614728533000764 10.025987987668259 -0.2657826000509411 -0.353100330692826 10.117603806526823 -0.29141388561568293 -0.3072770418629611 10.19849108628759 -0.30380219316425805 -0.2511547950496853 10.26621588963955 -0.3014918315025592 -0.18778815815833294 10.319129802434063 -0.2838538605710559 -0.12061513913072641 10.35645774660259 -0.25114663972592277 -0.053231611495430986 10.378318925160116 -0.2045088460712523 0.010846264278840945 10.385679906242284 -0.14588529385960092 0.0684104507086496 10.380245842441788 -0.07789282622218807 0.11676028639896785 10.364301927885249 -0.0036395146840650927 0.15385612631033174 10.340521622904625 0.07348539060261983 0.17841624070503803 10.311760422993924 0.15003134548708874 0.18995216439993534 10.280853875864608 0.22269719352502082 0.18874409916188295 10.250436375764595 0.2885160858543435 0.17576363458353184 10.222793490568167 0.3450021332047923 0.1525553220982625 10.199755875580426 0.39025121940834817 0.12109114595508097 10.182637906902297 0.4229935018257881 0.0836126152512251 10.17221965496236 0.44259974628678705 0.04247424663084448 10.1687671809505 0.44904732777309775 5.323953248146309e-17 9.19489931488037 0.14806943511963055 0.0 9.203330088263304 0.14282388833794527 -0.07729005696628953 9.229009703861074 0.12691548744274986 -0.15346431395015475 9.27204381865091 0.1004974641198153 -0.2256796512179161 9.331845649784047 0.06431701204334345 -0.2910288497059174 9.407092631041026 0.01974405772555088 -0.3466998062233895 9.495726902693923 -0.03124166301160214 -0.39015020144826223 9.595006250508883 -0.08611097304386872 -0.4192851958219345 9.701608179877798 -0.1418949354533745 -0.4326232715785444 9.811784852095101 -0.19534087550925117 -0.4294342128020312 9.92156111381145 -0.2431064601621764 -0.40983383535118345 10.026962493663547 -0.2819784437463029 -0.37482266175518686 10.124255594545179 -0.3090985399824535 -0.32626022020782064 10.21018051986437 -0.32217641379863826 -0.2667726504287189 10.282154411056027 -0.31966954844744766 -0.19959814332201686 10.33842711714316 -0.3009119797517368 -0.12838153514261919 10.378174360765776 -0.2661784668315046 -0.05693515887560885 10.401520012701091 -0.21667706726381475 0.011013035843457697 10.409486418787683 -0.15447046870492764 0.07206164681107774 10.403879133337544 -0.08233378698681237 0.12334707574580817 10.387118887216326 -0.003562863802175853 0.16270643004436547 10.362038313241163 0.07824844233441386 0.1887802706838646 10.331663334311362 0.15944138822362341 0.20105010756823694 10.298999043170443 0.23651571714723707 0.19981234068584097 10.266837597891161 0.30632571334226344 0.18609634881003023 10.237601657042962 0.36623568112964755 0.16153895385958128 10.21323189449482 0.4142268227344523 0.12823014935982835 10.195121916905341 0.4489528917908369 0.08854570282910335 10.184099123361431 0.46974690003731995 0.04498123014528149 10.18044618988037 0.4765850601196293 5.638233238546924e-17 9.143250390624576 0.15664555110279021 0.0 9.152211982319605 0.1510779989911945 -0.08213558786257398 9.179508625689637 0.13419313902952254 -0.16308681232362426 9.22525322469837 0.1061539278065457 -0.23983377437020567 9.28882308907559 0.06775398242414638 -0.3092884481178875 9.368813866672236 0.020448120109215928 -0.3684637698833071 9.463040029899227 -0.03366137700152183 -0.4146591402533539 9.568588944086576 -0.09188887736006346 -0.44564914440620873 9.681931372329545 -0.15108187983151278 -0.4598596866882585 9.799086004959264 -0.20778670004364486 -0.4565145391402531 9.915829764885876 -0.25845456682463386 -0.43573596182625285 10.027939950561343 -0.299673907777517 -0.3985857959388883 10.131449556629416 -0.3284101977613285 -0.34703819232620603 10.22289414852263 -0.3422321249936946 -0.2838815135680721 10.299528070562598 -0.3395025770025719 -0.21255421587744872 10.35948983022256 -0.31951532378258474 -0.13692673183096638 10.401901113229226 -0.2825631367581627 -0.061047515284821774 10.426890518327287 -0.2299298771953726 0.011124439163764155 10.435540886385603 -0.1638069291694313 0.07597676440635004 10.429766967794013 -0.08714216585525536 0.13046807229877855 10.412137047585837 -0.003436352501455353 0.17230096001033424 10.385657133582496 0.08349337391947054 0.2000311404695756 10.353538843996809 0.1697610892766812 0.2131072813762538 10.318972050552668 0.25164929654962587 0.21184335521618625 10.284920886500059 0.32581712671849106 0.1973316779048675 10.253957481825985 0.389465446674277 0.17130962049390464 10.228142495940995 0.44045035155408635 0.1359958036077893 10.208955978610895 0.4773422566699415 0.09391235052554214 10.197277010353405 0.49943300833579507 0.04770870059440335 10.193406478033527 0.5066975802391065 5.980159940258234e-17 9.086512029629631 0.16593241481481424 0.0 9.096055285417819 0.1600132390707084 -0.08744217449310313 9.125123875549656 0.14206211988935902 -0.17362510523508387 9.173838733336837 0.11225268172674613 -0.255335511308916 9.241537975496389 0.07142931973832967 -0.32928757282436927 9.32672785019671 0.021139671244371994 -0.39230281731203953 9.4270832146629 -0.036380008624349536 -0.44150746940449315 9.539505021097208 -0.09827306095923238 -0.4745332273125524 9.660237850127436 -0.16118633647120273 -0.48970465371937777 9.78504492836691 -0.22144644834034133 -0.48619509587414245 9.909431856982476 -0.2752790066081938 -0.46413374957959763 10.028904225065888 -0.31905570604893585 -0.42464939964392223 10.139239257884618 -0.34954945358214085 -0.3698414345865799 10.236748496250208 -0.3641749355709756 -0.3026755154172611 10.318507867452954 -0.36119175710719675 -0.2268090100238025 10.382533701934317 -0.33984981228007616 -0.14635897969595968 10.42788815523136 -0.3004617159105907 -0.0656320365023273 10.454704551430902 -0.24439435573337898 0.01116019370979604 10.46413144654046 -0.17397996555741324 0.08017464486306825 10.458202581421052 -0.0923554317953339 0.13817548087303777 10.439647208327056 -0.0032456883536244874 0.1827181519365304 10.411660579643085 0.08928790670068087 0.2122655060347638 10.377657080890245 0.1811109589717812 0.22623019356612373 10.341028405605075 0.268268388356376 0.22494528115925005 10.304926568035086 0.3472059105238319 0.20957177243283942 10.272087032644308 0.4149456721209702 0.18195684688364988 10.24470161074146 0.46920697419495516 0.1444596336392694 10.224344882391131 0.5084691221698515 0.09976215213735451 10.211952498685024 0.5319789768264449 0.05068190931008987 10.207845362962964 0.539710192592592 6.352900809294883e-17 9.024 0.17600000000000104 0.0 9.034182323326567 0.16969600252322914 -0.09326867550016014 9.06519776482746 0.15057797345448315 -0.18519614435291665 9.117176187702224 0.11883127193775739 -0.27235706461181064 9.189412836461953 0.07535596937781791 -0.3512487093384543 9.280316007040279 0.021801435643402756 -0.41848268849234194 9.38740750846175 -0.039449261809320735 -0.47099528573364446 9.507383889436424 -0.10535206526974772 -0.5062614510925454 9.63624167186415 -0.17233398780872955 -0.522494531914127 9.769463862091733 -0.23648094648660734 -0.5188124677366368 9.902258392423752 -0.2937713944013334 -0.49535192039711906 10.029832693680122 -0.3403396293337999 -0.4533149200296729 10.14768324470977 -0.37274766341104026 -0.3949380054945033 10.251875582508216 -0.3882415698907282 -0.32338106535336575 10.339289577800127 -0.384967937715484 -0.24254132528061234 10.407807117673165 -0.3621287577578056 -0.15680610723756594 10.456424563581985 -0.32005857619947253 -0.07076494740243833 10.485279872761677 -0.26021545406040536 0.01109363356928661 10.495593097160638 -0.18508616150696344 0.08467368423565524 10.489527895390125 -0.09801489341254266 0.14652618694182262 10.469989488684044 -0.0029724042891707825 0.19404522689971326 10.440380145781019 0.09571217016355926 0.22559175793534614 10.40433615318641 0.19363202264691326 0.24053882282644823 10.365470138483106 0.28657161486446314 0.23924026858653402 10.32713984301476 0.37074271430156325 0.22293222429343462 10.292259627702297 0.4429715664579317 0.1935820585100967 10.263164998242253 0.5008275421177653 0.15370273654678956 10.241534157404546 0.5426901043135106 0.10615136695938876 10.228364834551874 0.5677568395983309 0.05392950943034791 10.224 0.5760000000000005 6.760050331293385e-17</DataArray>
</PointData>
<CellData/>
</Piece>
</UnstructuredGrid>
</VTKFile>
